Ge Sb Te 
 1.0000000000000000
    72.1695600000000042    0.0000000000000000    0.0000000000000000
     0.0000000000000000   72.1695600000000042    0.0000000000000000
     0.0000000000000000    0.0000000000000000   72.1695600000000042
 Ge  Sb  Te 
 2765 2765 6912
Direct
  0.9591841768191465  0.1233938519231654  0.3445247553123505
  0.8789342764456372  0.1691197784772416  0.8709558434331592
  0.9647128235228259  0.4163348093018719  0.0460171850846811
  0.0795311763020309  0.7041334324332863  0.8734388847597241
  0.3385291527341998  0.7489168563588304  0.8357637208817678
  0.5834772998477474  0.2842029243354123  0.6248091300542776
  0.1654547983942260  0.1186705308997311  0.7031524094091747
  0.7498881800027601  0.5446340534707430  0.6231158953996671
  0.7932153112752800  0.8652262809971406  0.7605630407058045
  0.8386305805383877  0.0427379632077568  0.5417020694043305
  0.0354156239832971  0.0010302709341722  0.2052388846488741
  0.5409801583936495  0.1223718143771418  0.8377410088131340
  0.2478995299403239  0.4167754382872779  0.4954595815742814
  0.9554471441976368  0.2926926532460500  0.2529723057754544
  0.9522865318840796  0.7124402587462082  0.2481295438132088
  0.7554819511162323  0.5049275622575501  0.9953559367689092
  0.8380195195869283  0.2504643231855647  0.1608517496850473
  0.5840966745536484  0.8392693540046523  0.0853054944494604
  0.5015383216968483  0.0403046658452677  0.9574050333686390
  0.7544150192962240  0.2886230704468754  0.9572456864085079
  0.5010935358342214  0.3372169651581636  0.8358537865548854
  0.2087209621341740  0.4635818757936171  0.2485978853134202
  0.9193543649150695  0.3746912133037807  0.5373428908254394
  0.2167312645386781  0.5840620339101416  0.8737021536503755
  0.4121183501742285  0.1644072653345815  0.9160468762730435
  0.3698747782306003  0.2531884633909366  0.5362413183619243
  0.1201121359199086  0.4977735765605333  0.3762472710101045
  0.4157542321166985  0.7976174442521196  0.5415371799412384
  0.6267296073302927  0.4961135969236891  0.4565276551498998
  0.5024375928022839  0.7477751007488476  0.7495833423399005
  0.9165304596563980  0.8707341433147160  0.9594890144820061
  0.1215892129590370  0.9177789084483817  0.1261276915087192
  0.2039377820787601  0.4230883491599505  0.9609494640122510
  0.9554887129698448  0.3384515576927447  0.4566953158644725
  0.5836685161999048  0.2473965477966057  0.4956369416690360
  0.6706068320216999  0.5036333878161374  0.9997358997339043
  0.6282981356682790  0.9579634405419681  0.5799467254615380
  0.9132146572599307  0.5411353484765599  0.1267323785817732
  0.9587324628278182  0.4971639012348142  0.7106915990619868
  0.9145102173270835  0.0827520633352898  0.2456021624629553
  0.8025294875013786  0.2422544906744616  0.1255953340993072
  0.5406545363446860  0.2131826770178452  0.4146914571739110
  0.0786235914421537  0.0877267368680092  0.5052892105757608
  0.4163514368107551  0.2040098346172541  0.6302601817165020
  0.4577483914270781  0.4595510905151701  0.5839664257340629
  0.2114478735910265  0.2145627602551546  0.3340729803534898
  0.1271800742584547  0.6260963763669890  0.9148192118671639
  0.7954988224952459  0.2154273907170835  0.8359244534676392
  0.4149131572923542  0.4574878937879072  0.1213684827786119
  0.9547765013393458  0.2120326076534206  0.9952991261135580
  0.7516396109384621  0.0833552262200296  0.2546115010261944
  0.9617988525910369  0.5882424667685379  0.3712382339590265
  0.8761505543334336  0.7449719798762802  0.1222800859531359
  0.3330545454343909  0.6273184982699077  0.4548025511032628
  0.2982019011893657  0.2913970931788971  0.7422173559046223
  0.1259870504960817  0.4574989787938294  0.4194358397085973
  0.0886189412821694  0.7555900299239735  0.0864117780404924
  0.8783717123950873  0.7468550452573078  0.2177025881826077
  0.9990874268874578  0.8403653839652063  0.5004062654670474
  0.4145556658513644  0.1254770016610881  0.7103867613991273
  0.4632631818733549  0.4960124462446494  0.2006871040920853
  0.3695380711757145  0.5810330560419101  0.4573091480674123
  0.1586957160331863  0.0428353726972979  0.8746554641596817
  0.7942600730834439  0.5434839841063185  0.7497038917793042
  0.4628516510284945  0.6695108020611460  0.2935905387257453
  0.4599584644828096  0.3398565821933791  0.1191331913344075
  0.3845942804694943  0.1613533462030252  0.2957216311142814
  0.4596813393347555  0.7037690128635951  0.1686195675850040
  0.8688607773138702  0.9187654739754544  0.7947782971103052
  0.0359438245154882  0.7922010332334020  0.4166341044617703
  0.5075893493046099  0.0810520391145519  0.0011020505043955
  0.7904579160521416  0.0788233986739007  0.4534778928955642
  0.7117959427769823  0.5320664280064892  0.1593525026340745
  1.0001862280994924  0.7871241005210506  0.2913236550146627
  0.8342450750704313  0.0840844810471340  0.8378754145099401
  0.9188472258941304  0.6275845384120395  0.2116584887035476
  0.6214503732598620  0.6611374657126911  0.2049354326117549
  0.7898177569601366  0.9158667449268085  0.4592337822206481
  0.3335935538473561  0.1244625850566361  0.2097393970532729
  0.4985786251156304  0.0850093862287646  0.5860102237009620
  0.1236952255216742  0.7887868514093753  0.4197365204942361
  0.4544131902702469  0.3769567113891230  0.5048264115785104
  0.2474949272241649  0.5055566363436329  0.3338291102232022
  0.8314059279286170  0.4183592085084071  0.3347976626156512
  0.1660630880942048  0.8655685305549874  0.5415565787016021
  0.3743517349974144  0.6147993697065632  0.1654603408971871
  0.5817300257892662  0.7469284834215423  0.3240632200057753
  0.3394298094653757  0.8725409992800288  0.2870988821325778
  0.4610669650750260  0.3708322456171272  0.7539383640415710
  0.3737767003152022  0.7035902671431001  0.9170459124317787
  0.2486200553252645  0.0852622629263640  0.0027056975267689
  0.5444026539721178  0.2479563405956750  0.8752097144557899
  0.3797459760042877  0.1284268602995501  0.5044384363712345
  0.1667448159584179  0.3760103290085183  0.0474004552611932
  0.5834398879527601  0.6660550514649112  0.2424900470503076
  0.9516616146752176  0.9207566181642232  0.2896137928511688
  0.8403861683513104  0.5013498765961716  0.4121349776831118
  0.7872418787089737  0.5886844813796842  0.4554939783476579
  0.6727517806676387  0.9613859361204363  0.2114672723513902
  0.1256898337747937  0.1321665256099663  0.6654952586658419
  0.0828576480166985  0.4532395652682377  0.1275990874823125
  0.3427081999668558  0.9941601417550556  0.5017420086806682
  0.4193346890295576  0.6224313962839735  0.2866873512877174
  0.3284764379885370  0.4179365926576246  0.0899743603813020
  0.7050479454218649  0.3355902405390860  0.3783742065214198
  0.2928769414695060  0.0423344689921901  0.3370008075426814
  0.0813421891445646  0.6358733515903381  0.5436516448208912
  0.7885235825187240  0.4147177840629761  0.9561344145648110
  0.4222029343119176  0.5428756944063396  0.8759080698288862
  0.3373998677558794  0.9182098380536060  0.3386109046528758
  0.9616783031516333  0.7067453369536962  0.6659497439086507
  0.1681165854412857  0.7474758055889491  0.7470850591301929
  0.8289713835029616  0.2920635791599672  0.3682522104887434
  0.4537674886752808  0.4507010989120621  0.9139975358031834
  0.6282136124981225  0.0018879289273760  0.2095911350990639
  0.3708862850209977  0.5421634827758406  0.4972484244049707
  0.2569033260006020  0.9596386620619551  0.7842364564783268
  0.8800219926517496  0.8743783390116275  0.0047714022366216
  0.0369806882569327  0.4945007285620142  0.6147896703263814
  0.6273933220598823  0.7063947736414078  0.4167698957843168
  0.9133726185943214  0.7918615549270357  0.2036800556910698
  0.5422978884726469  0.7501611482735935  0.6225588738520783
  0.8321624795828048  0.9180477198419943  0.9119412672046221
  0.6321016783253216  0.0376036655897583  0.7610355390832367
  0.7543928492843798  0.4097932701820546  0.5798802154260051
  0.5004713898768400  0.8346247365232654  0.3307696485886847
  0.6651516234822549  0.6588899807619722  0.7509758962088725
  0.2948071181257028  0.5482837916706157  0.2522309960044096
  0.5403552411847876  0.7511463281749258  0.2911074973991805
  0.5396347157998469  0.0822921741520940  0.8768170403145037
  0.0772055420595608  0.0027258029562602  0.4155630157645411
  0.0830211518540504  0.8342007350467426  0.0831696909334074
  0.3326804264845178  0.0436564945109822  0.0390086900903927
  0.4139612324087884  0.9543150879678357  0.2959197755951401
  0.8746790197972663  0.2499350141527813  0.8744628621817840
  0.3321441893230331  0.4207217003955684  0.9140792877218594
  0.5064905480925752  0.8720213896274274  0.4590134677279452
  0.0443687061414813  0.6679893849983289  0.8794247879576930
  0.4582070335471077  0.4144808420613899  0.2914275769451830
  0.9129984996444483  0.0477370237535049  0.8730994064533579
  0.1584255190138335  0.9521673680704164  0.3735259020562132
  0.4967094159920054  0.3187438027888766  0.0789453337390445
  0.4138517679753070  0.3655654821783588  0.6211593918544051
  0.5398855140588358  0.4622613744631393  0.6662518103200297
  0.4573936712375689  0.3324781251264384  0.3734663201493815
  0.4936444118545270  0.9510159130802515  0.2080517049016233
  0.6613453095737316  0.9036191990085571  0.5012057715191833
  0.0432528617328414  0.2107938582416188  0.3368137480677449
  0.0796671061871515  0.7437110604526340  0.8286180489391927
  0.1233449393345338  0.1253841647364900  0.2552100913459913
  0.9038990954080917  0.6641747573353640  0.1649836856425340
  0.0295262988994252  0.4949995538285116  0.0446595489843640
  0.6720700528034257  0.9212180315357333  0.9997594553714889
  0.1641883364676187  0.1266065637645567  0.8771066360942203
  0.5853395808426710  0.7472998311199347  0.8296060000920056
  0.6275194140022469  0.7061952435348089  0.7432080783089158
  0.5434063890648633  0.2442290073543472  0.6263430177487572
  0.3843878222341940  0.4163348093018719  0.2079893517433112
  0.4566592895952254  0.9600155522633088  0.2487669316537332
  0.0788403033079320  0.9947518039461513  0.7453793538439197
  0.7883517649269304  0.8722167628568055  0.4170428640551501
  0.2925208356542565  0.9543705129974465  0.6697699140745766
  0.0471612962584225  0.7511310862917828  0.8743603258770041
  0.9568272274349462  0.0494403734760195  0.8320072894998943
  0.1617136088954955  0.2921952136052928  0.2042149072268142
  0.8283921919435285  0.2923989005891126  0.5472556573713349
  0.8748300530029558  0.0408557292021733  0.4966276640733295
  0.2914760738460924  0.2898715192388591  0.2517280138606914
  0.2107772307327355  0.7921747063443368  0.8368666789710232
  0.3428647756755064  0.2038615726630452  0.7965809961983972
  0.6262903639706270  0.1247183715682900  0.5827609313400276
  0.2007356009929948  0.0807347308200299  0.7066469575261369
  0.6655201999291668  0.2576432501459064  0.6692627750536376
  0.7077305168550286  0.9232618295026324  0.9590303723619764
  0.0413915506759360  0.3789603262095543  0.6679381168459388
  0.2124330534923588  0.9166620941017238  0.5412309566526385
  0.7116061120505653  0.7139589045575447  0.4187166999493969
  0.0380341795072604  0.8775902194775747  0.4134249952473037
  0.2507400627078785  0.2148177153913644  0.9514038882875273
  0.5021479970225674  0.8320336163889596  0.8291806129897424
  0.4120864807822024  0.1708254837635147  0.4233710168109657
  0.4168045364278236  0.6714091093253166  1.0006905958689507
  0.4922102892133470  0.7907752243466636  0.1222915866467802
  0.5117143571333953  0.5397303239759256  0.8730328964178249
  0.5873584375462453  0.4216306708811859  0.7481131934294736
  0.5016838123995767  0.6320725801847760  0.0463961537246451
  0.3297138017745986  0.5414720555314457  0.1307559586063709
  0.3356567505746190  0.4602882434089940  0.1251408488564985
  0.8723996654545213  0.5820819747272949  0.9574646152754707
  0.0077135152271955  0.3808226072044779  0.3779183356528708
  0.2880411076359617  0.9135028674139068  0.3760948521786748
  0.5839691969855434  0.6665677329888113  0.3315622265121195
  0.0032807460652386  0.2528960963597395  0.9243786438492905
  0.9053927999561034  0.2086170402036537  0.2935046299298485
  0.0458867977025217  0.1678200615328679  0.3699108044998473
  0.7984723753338665  0.9999839267414129  0.2880591207705853
  0.4160341285162331  0.3654019783410069  0.7924102627201828
  0.8766563077286323  0.6281595730942520  0.9085686541528034
  0.3746551870345337  0.9564046115841638  0.2422531050487214
  0.4589912977161008  0.1681526117105328  0.6252774715544891
  0.7136332825085812  0.9498395168267617  0.7423226634608828
  0.6685034521479694  0.2096548738831163  0.9591592355558215
  0.8813854483801757  0.4505805494726585  0.0018736292697364
  0.5901546302901112  0.9953226817511426  0.6710765591476517
  0.2906696396652549  0.4604462047433849  0.0783845710019571
  0.5381895081527447  0.3239994812217228  0.2865501743394306
  0.7546990725729794  0.5872171037207377  0.4182774565897312
  0.5059944940775585  0.9177899934543040  0.4166105488241857
  0.5443472289425070  0.7869689104381404  0.4162184167396891
  0.4140055724324770  0.0351426557124638  0.3746718145434169
  0.0397953098231443  0.4172326947815672  0.4601081120627589
  0.0443462590044889  0.2914649888401703  0.8419588535665176
  0.9567191486272052  0.4213189050896251  0.3774042685032304
  0.8766673927345545  0.0066789793369947  0.3730229199124949
  0.6187553311950357  0.2486934934894989  0.7049287816082016
  0.7067966051060862  0.0050541530251813  0.8751168775311917
  0.1270144919824923  0.4578911108783260  0.5837696668789445
  0.9223237608764692  0.4176178987373624  0.9233463526727889
  0.4569516566264226  0.8712232692010315  0.7472818179853112
  0.5465004913428875  0.7004060991919585  0.7480993371720709
  0.2439740522181374  0.6708576302806890  0.9125731125421853
  0.1637671062425765  0.9579191005182793  0.1293520426063287
  0.2115088411235984  0.7506447316569478  0.3779779175597024
  0.7928841467233553  0.6727628656735609  0.5409275046155193
  0.7914223115673699  0.5027646004769878  0.2076124615419576
  0.4994543405834814  0.3737101902796692  0.7159736043838981
  0.2883196184097561  0.5430101001031460  0.0888614257867167
  0.4230315385045995  0.5467970152513054  0.7906796161705849
  0.7103271794922956  0.0761236454815576  0.2909924904627381
  0.3750625610021732  0.2892563014101790  0.6666162298897208
  0.0418677902428669  0.3267679614507834  0.7934328545165025
  0.6207049066115963  0.3281729859514178  0.0388900805270255
  0.1642243627368658  0.5903015066185798  0.2497160852858185
  0.3719920143617336  0.9587587897168834  0.8352773662469328
  0.6690563168183372  0.6253495240929832  0.0388368724985991
  0.0366894297263278  0.1308906414283252  0.9213829209988256
  0.4147163984372358  0.5371835438653083  0.2868217569845237
  0.7077041899659634  0.5014150010059643  0.4553997557973195
  0.8361198266970173  0.3342766673373095  0.9972694859162228
  0.0389015812206698  0.0427648443471181  0.8367170313910740
  0.5439329268461661  0.6631646361707069  0.4592850503730381
  0.2392061140458664  0.5425126604623889  0.1248423850720442
  0.7520400567774003  0.2521658715946169  0.5785638709727481
  0.6700359542167085  0.8664317753911760  0.7916828092065408
  0.7489750526399218  0.4983915656406939  0.6703879031547372
  0.2464986623169103  0.2050545964254181  0.6249310651194215
  0.4654399999113200  0.9195261825068630  0.5455277820732175
  0.9996375203063452  0.5796820709451463  0.9143522559926927
  0.2986730139410577  0.7122254867564664  0.8373405629741958
  0.6641886135927667  0.2508606121472821  0.9198961445795151
  0.5401917373474356  0.5429782307111197  0.9968925957148692
  0.6666633411648900  0.4585437406019934  0.2067880142264966
  0.9197326407421633  0.6248105156800180  0.7099627599226044
  0.4936457974802673  0.2945369211063500  0.6177410531531575
  0.7121672904753749  0.7939483072918831  0.5065141037301599
  0.7113234443995502  0.6337741285938281  0.9158459605407043
  0.1677493946201141  0.9109948848240171  0.6667423218320854
  0.4582430598163547  0.7546866019413171  0.6246594824743286
  0.8354782819792721  0.6674337490764803  0.7480175852533949
  0.6303363911322170  0.0412963581875794  0.2528240438212454
  0.5820653472184116  0.4154022831786697  0.0833221097648371
  0.8795384092683951  0.8734416560112047  0.0839606061059538
  0.9201774266047901  0.6691408399884937  0.8318936681891922
  0.5432345714730697  0.1229321614265072  0.3345302368477791
  0.0349806760634262  0.7109922798476255  0.1691405628633457
  0.7479192058258356  0.7458490809698715  0.1697336106801815
  0.5011267908519880  0.2084951051385099  0.2088719953398635
  0.1252600126701618  0.9211972471496293  0.0409836224580003
  0.6694553770315352  0.6618898604896580  0.9121089279191946
  0.4992201698333757  0.1637296943475892  0.6677094885987942
  0.4560662417783896  0.4647555007956263  0.0804469363537757
  0.6745891203992376  0.6271023406544255  0.8751418187945167
  0.9577320410433430  0.0396667237544472  0.3229311637759743
  0.3313516113995983  0.2544036571651538  0.9872624968199888
  0.7545383399871082  0.1213120878109829  0.2953807671821748
  0.9229625343427340  0.8316719680707489  0.1631324896535326
  0.3275896375147638  0.7082127146126428  0.7048664284498893
  0.1220058706191364  0.8745861828726681  0.7481173503066944
  0.1224837729369557  0.9159817518632508  0.7045491201553674
  0.6657862400712987  0.0841717754687710  0.8331490451098773
  0.3719407462093436  0.2950703870163543  0.2506402976545790
  0.1243572775003755  0.2948847131671580  0.0017224436452155
  0.1236514397482817  0.0062874707840813  0.6194315165562877
  0.3359269475939717  0.2485369177808483  0.6715684562854477
  0.5878517203097815  0.6581292722305636  0.8322414602500001
  0.9535294381731022  0.7900699408448658  0.1701118865072754
  0.7887161844966216  0.6267545485936176  0.3348891139145091
  0.7931737425030719  0.4112509484608192  0.1223550483056846
  0.8359230678418990  0.7121423492120501  0.6265591753642394
  0.2950454457530294  0.4569073166027339  0.1626419781414768
  0.1245361617834444  0.9605310050386894  0.3370229775545258
  0.3755156606192417  0.5412018585120929  0.3311936500652076
  0.4965639252892770  0.1262432526954577  0.7064072442730702
  0.2841045449078531  0.0856739323337983  0.3787538679742539
  0.6248894963472134  0.4971264893398269  0.0422132267399164
  0.5805785707991015  0.4228652634157670  0.4925608525256354
  0.4644312643724030  0.0758102169391084  0.7087863636691147
  0.6642301823649749  0.3359602026117382  0.7516326828097607
  0.2485050483888221  0.2463351584795584  0.2492200312708017
  0.7478346826556792  0.4979356947721449  0.5023087296084388
  0.6695509852076138  0.6716571363328251  0.9996652328211505
  0.1663429844937394  0.4982058917914977  0.7476088256600151
  0.8782719473417878  0.3669067678949408  0.0785987887414029
  0.8387220318372455  0.9991179106537438  0.0833599373475465
  0.2482805770188982  0.2526272849661270  0.4971916137496196
  0.9107385440620671  0.2501331586336400  0.9141818240266395
  0.7992316982395348  0.4568505059473828  0.9080296457398382
  0.7500904813608396  0.2092544280441782  0.7073106722557266
  0.9547335469413973  0.0042957862012738  0.0442323605686386
  0.0843368034944373  0.4628530366542348  0.4674380722287901
  0.7492341646533525  0.9234793727438547  0.0021871825185023
  0.2938745920025008  0.4220948555041765  0.3714308359369241
  0.4110209345879343  0.4538727962315414  0.3734413788860567
  0.5812561417860937  0.1251520724249947  0.7975537054680671
  0.5375036234113109  0.3740593679662173  0.9981452013840739
  0.9213316528464354  0.2454732992691101  0.1738489191287850
  0.8337046810317258  0.0890192485585335  0.2515021568650273
  0.2475170972360092  0.1324473919475191  0.3756791644565936
  0.5052947530787218  0.5428549100202357  0.9541072441067951
  0.7069864358325033  0.8345956383827198  0.9693574410042128
  0.4182054040512371  0.4525398242694010  0.7068825139019830
  0.0840510874667935  0.5769080482131247  0.1696324600011417
  0.5387825559695805  0.5863594013875102  0.9559570544700563
  0.7860197568060551  0.2863880561278190  0.3266778957776658
  0.1724799208973977  0.0403973642072918  0.9584400957966210
  0.0784100665155780  0.9963023191495139  0.2469628469399010
  0.6641553585750003  0.5015785048433162  0.7482877822727476
  0.7094029671235351  0.2054148591178885  0.3406075913446057
  0.7552353097344642  0.1272483856074500  0.6290962560946748
  0.1707478887220596  0.9158307186575614  0.2559901986377636
  0.2977765140871027  0.1219467044000268  0.5108206285309207
  0.7115520726466948  0.1231667478643350  0.2497188565372991
  0.0412937254986728  0.7918199861548275  0.1622512316827205
  0.8786197394025957  0.8037169687607906  0.3321802155922801
  0.4653042085887735  0.3733042019377699  0.3341588891493865
  0.0824484727355966  0.6713647693016280  0.4150184648486148
  0.5432539702334336  0.8349545154494499  0.4601385958290448
  0.7973957441336763  0.3797875447764958  0.9969840470137270
  0.8329245737399535  0.2467009636749899  0.6614298327438881
  0.4113049878646898  0.0806914992969335  0.5864217545458223
  0.7462758536978749  0.4616309147513162  0.2084951051385099
  0.6663488041218486  0.3354059523156300  0.2461965959055314
  0.0378841162395891  0.7029320949164717  0.8400508469221649
  0.7152738633850615  0.1622969573321494  0.3693510117007780
  0.5857857523310381  0.0475198962000045  0.6319700438799959
  0.0453707906768449  0.5841617989634411  0.2971543681297211
  0.8381525396579943  0.0001406188426256  0.7562107902556147
  0.8795356380169146  0.0433706399207644  0.3294242059948820
  0.3275355981108933  0.0403513614327148  0.4569849116441891
  0.9561579702023955  0.8342478463219118  0.6221431861299972
  0.9489402457213263  0.9600612779127377  0.3425003561058153
  0.2910465298666086  0.4607136305112570  0.3314084220549495
  0.5014316285148475  0.9958575332868871  0.0787603527027184
  0.4636359151974876  0.9175863064704842  0.7096662360141865
  0.5784474784105653  0.8260546413196921  0.6719924577619705
  0.6207603316412071  0.0424727544410691  0.8374250861443522
  0.4992866798689087  0.3290099038985411  0.1681650823421952
  0.0891575340074125  0.4195563891480009  0.2493696788507509
  0.2878498912838044  0.3765853636907305  0.1672408699734348
  0.2474561297034373  0.3377698298285315  0.6671205976591793
  0.9542042379086142  0.0006973313956743  0.2884082984571334
  0.5034075308204733  0.9132686966638012  0.7502110308002432
  0.7059292033926768  0.2826399385003871  0.0798983671232026
  0.2088678384626427  0.4623736101481012  0.4954692809544634
  0.0349659884305793  0.6290255891819211  0.9974246759991331
  0.5412711397991063  0.8290808479364430  0.0416987439025539
  0.8378948132703040  0.0452507954877375  0.0394554158290559
  0.9174449726449767  0.9636943886037271  0.5403206005412808
  0.0410041297189563  0.2098294627263904  0.1685239594089253
  0.9593421381535372  0.7552879635125945  0.9637456567561171
  0.5397330952274061  0.1665965540042089  0.8737215524107393
  0.9600252516434906  0.8286471470797383  0.2055257091771101
  0.7532677211832800  0.4979398516493658  0.3374400509023472
  0.8346995603132400  0.2485757153015759  0.5007305018902707
  0.4169250858672272  0.7098380536059802  0.9648139742018657
  0.9581546568941255  0.7945413551087189  0.4182400446947439
  0.0819054460079845  0.7927788391670948  0.5448779236010306
  0.4231811860845486  0.8330063256586294  0.4953127052458127
  0.2108589826514115  0.4995721187714044  0.4630193117430673
  0.4106398875093599  0.9595084132423697  0.7008827544466115
  0.2900558074623151  0.7172553081936485  0.1724369664994493
  0.8741122988694956  0.0394522288898533  0.8428678240521350
  0.8774114737570798  0.0912388824318729  0.3752399210969278
  0.5002552322613578  0.7924338183577674  0.6272852432521412
  0.5799384117070965  0.8794525004724983  0.1276532654487571
  0.5855876078501795  0.0484808276508822  0.2829059786425191
  0.6695385145759515  0.7920306012673487  0.3766269324629387
  0.0466228420957534  0.2129471206419992  0.0876411051972605
  1.0008942828527705  0.6652430747811127  1.0001155611867385
  0.6692198206556892  0.2470238144724729  0.4987906258538919
  0.9612750860612146  0.5436599585753329  0.3297262724062610
  0.3357620581308796  0.0050086075070986  0.8307671544623523
  0.8776054613607177  0.1691114647228000  0.7929866830281354
  0.9033171325971779  0.9596594464480592  0.9583292457373995
  0.5887911745616851  0.8703115274639336  0.9577708385640704
  0.1667143321921320  0.7074215223149483  0.7050437885446440
  0.2071995450713569  0.4179809326813133  0.2132020757782090
  0.1336508079029441  0.2574132362730215  0.5441449275844276
  0.8373752036177025  0.3319876136143826  0.0838860594411273
  0.6253689228533470  0.9993853364216160  0.6268723267815406
  0.7093392283394827  0.3690004483884896  0.0874070730097288
  0.1644585334869715  0.1306592419297000  0.9589403066888588
  0.7810578310301463  0.5478999733405607  0.8292956199261848
  0.7538344421110507  0.2517543407497566  0.1607547558832283
  0.9140598889614956  0.0467979851893236  0.6234664587119555
  0.2924446262385416  0.1279206912166293  0.0046626860410400
  0.0857849209555940  0.3779017081439875  0.4629181610640275
  0.0374854717141133  0.3757054913456587  0.9270570584052333
  0.9586132990141549  0.6721753603596862  0.3698290525811713
  0.8848786108713979  0.7121562054694528  0.0002695915009043
  0.7144660435784838  0.0874950602442359  0.2065205884586244
  0.8787416744677395  0.1220607413984511  0.2527339781481278
  0.1733847345057944  0.4996483281871192  0.1672214712130710
  0.5766572499541358  0.2068947074084974  0.4583788511389013
  0.9975604673216796  0.2535196279428612  0.0902178148238676
  0.9172440569126374  0.1619450083941207  0.4955967585225682
  0.1660201336962564  0.9995335983758250  0.2508079583691518
  0.7948004671221495  0.0845688958059326  0.6237338844798278
  0.4614092146328729  0.0827674437810068  0.4627297159633508
  0.7100458974670206  0.9617254144268027  0.2559458586140749
  0.4544187327732080  0.6654065786184646  0.7097950992080317
  0.5011836015073391  0.2474852278439830  0.1677812640121403
  0.3721860019653715  0.9961305015577203  0.3750196066042248
  0.2492602144172696  0.2483997408325615  0.0783143197769253
  0.4590688927575560  0.1646081810669207  0.4642178780084013
  0.6232101179500055  0.7508664317753911  0.4613704171121453
  0.5789116630335560  0.3638653193950469  0.9621508015290657
  0.8286596177114007  0.2944080579125049  0.7098144979683955
  0.6288897978593745  0.4943760222453898  0.6220337216965158
  0.3757151907258406  0.5032107719653549  0.8760632599117966
  0.4920218441126702  0.3762472710101045  0.4481058219005353
  0.1279508978577672  0.3698470657157948  0.4204182483584492
  0.7119178778421262  0.0831594373029294  0.7084593559944109
  0.6650823421952413  0.2086960208708492  0.4584134917824080
  0.5899079889083431  0.5035377796400587  0.2442941317641399
  0.6240996896752591  0.5322271605923605  0.3366751854937178
  0.3744833694427401  0.0410966895184064  0.1635246217380292
  0.4186335624049807  0.6213824775985887  0.4513828267762751
  0.9603467168152334  0.3344886680755709  0.3781234082624308
  0.5391996293174020  0.2870670127405516  0.9931209224498528
  0.7079064913240429  0.0370800376225101  0.5872462018612834
  0.6295770682265487  0.7022988639531681  0.8298512558480334
  0.9964408817235411  0.0352927189801351  0.1314695558626102
  0.2952422046081478  0.9151212782785428  0.8767089615067627
  0.1681013435581428  0.0407821524753650  0.7056437644901812
  0.9607443914026911  0.2899200161397686  0.4992894511203892
  0.8731548314829687  0.2864933636840796  0.9192684561191726
  0.8343282126148475  0.1258055335241063  0.8780474759718639
  0.5420775739799438  0.8295561175653557  0.2069224199233028
  0.9245490758153437  0.9588419272612997  0.7064044730215897
  0.1624937161872679  0.3718118830154985  0.5416300168658365
  0.7043398906685865  0.1288892436090784  0.9207690887958856
  0.4640696160541924  0.8719465658374527  0.4985910957472929
  0.1202849234497204  0.9586908940556100  0.4166604313508354
  0.7898911951243710  0.4174266823852050  0.2943761885204787
  0.3260709917034273  0.8781610972825662  0.2028445233696866
  0.7120896954339198  0.7949307159417349  0.2496274052384412
  0.9521396555556110  0.2039391677045003  0.1691225497287222
  0.2513816074256238  0.7936808815240110  0.8785463012383614
  0.1266926111230275  0.1317519463884774  0.9179950660638641
  0.6261670432797428  0.5410106421599356  0.0873731251790921
  0.0835106934280880  0.5452520425509038  0.4676459160898306
  0.8695286489206807  0.7099101061444741  0.8316705824450086
  0.7524668295054037  0.8769971716607389  0.9627965031240318
  0.9922161088414561  0.9209339782589777  0.0028591278649891
  0.0421335532598508  0.1205369687718756  0.1752414729977569
  0.7481589190789025  0.2416295734655996  0.0808339416230333
  0.8783564705119443  0.9928340979216168  0.4558528554143880
  0.7491205433426502  0.1618590995982239  0.0022534985664316
  0.7987148598384138  0.0341067619090375  0.8383354422557100
  0.3729065273503123  0.3781677482861195  0.0881736011692464
  0.2531261102326244  0.2062933458372200  0.4562089612296375
  0.5034934396163701  0.6645003793843276  0.1624133498943322
  0.7093004308187552  0.9947324051857874  0.7131690978855905
  0.5040435330352575  0.7880136722463044  0.7857689585470661
  0.3716774773186922  0.8318617987971659  0.2059261550160483
  0.2457809081834502  0.5789282905424392  0.9978680762360196
  0.5398065333916404  0.4577913458250265  0.4936762812465532
  0.9996001084113578  0.2074004608036962  0.2921356316984612
  0.8831133236782931  0.3280025539853645  0.7072150640796480
  0.3783367946264325  0.5831433640443422  0.8830357286368380
  0.9612349029147468  0.4184506598072650  0.6210305286605599
  0.2468921800271472  0.8339582505421953  0.6651890353772422
  0.1270696398869551  0.6997742538543951  0.2512291885941940
  0.6711333698030028  0.9633133415251527  0.3751249141604854
  0.8771191067258827  0.4654871111864892  0.3265268625719763
  0.6661423458865483  0.0834996084221658  0.5015050666790818