Ge Sb Te 
 1.0000000000000000
    72.3893547821070058    0.0000000000000000    0.0000000000000000
     0.0000000000000000   60.0544819719299880    0.0000000000000000
     0.0000000000000000    0.0000000000000000   72.6989373779230021
 Ge  Sb  Te 
 2048 2048 5120
Direct
  0.0312499999962585  0.0208333334481145  0.0252793373818706
  0.9359956019988146  0.4985389021155707  0.3205756265982689
  0.8819198108380225  0.5381856682855402  0.5545738790950059
  0.7134257018182981  0.1522083269800799  0.9544964757435900
  0.9419531209825163  0.2013333180331238  0.1953846006440334
  0.8491240177804175  0.3905348393047384  0.7053989236252022
  0.5588225231831409  0.0893218188898342  0.0982717671832011
  0.5230620994805665  0.3505437992679357  0.2260449076576871
  0.9962721385137279  0.0425977573961125  0.0419645932043803
  0.7236708399446236  0.6110493791435982  0.3042672841168205
  0.7484753076728620  0.0912219381923727  0.0198567213328865
  0.4994925532747873  0.4261727689866912  0.3923260342799036
  0.6563957839492170  0.6070700056721092  0.7162533022677507
  0.6309384474675371  0.7540443731674965  0.1763679645715330
  0.9662903532244679  0.4881815588415239  0.3033362374028628
  0.4931464682732819  0.4112241881201644  0.4777845439758812
  0.6297801770802263  0.0747151844822311  0.2755932205694884
  0.5868567730436476  0.1103691965496172  0.3014419432009329
  0.7885860241985441  0.9848573672025954  0.8948336965765266
  0.9770432091870214  0.1855429933782647  0.5026353409524570
  0.6305579124150466  0.5484102768139689  0.9710409597991668
  0.6321758394645993  0.0879166033718142  0.9466999175666644
  0.5708212850280482  0.3358979737494193  0.7731723340327913
  0.6636237201868794  0.8959525318389685  0.7703737457397016
  0.9052899514188162  0.8200176244806366  0.1648931982211472
  0.8102752168398382 -0.0016011496407302  0.8207506019436049
  0.7263496448869179  0.8130728159601123  0.1662879042310969
  0.9746107150913099  0.2631487540456465  0.4501910631012502
  0.8768601131392288  0.1151776869335141  0.1691363428238259
  0.8508330868525760  0.7671561763962486  0.5210146625747011
  0.7171691919615053  0.1512322987584336  0.8617657789122386
  0.6813923791015118  0.9654217128876289  0.4519695799130665
  0.6266072077995064  0.5743434803895870  0.7791942869540139
  0.5708326894256035  0.9548725512241593  0.5257640750298869
  1.0030700437652686  0.3754223721323794  0.1790900606296048
  0.8448184493090972  0.5546142567814627  0.8236541376752086
  0.7872984385315722  0.7638383385482049  0.0229711709614736
  0.9085669814324370  0.1440467443284995  0.3628126175888535
  0.7850448391387083  0.9449912006461183  0.0744990168435619
  0.5031204150396463  0.8842121430208257  0.9230988226219283
  0.7844334031419365  0.0564966515955757 -0.0064138320923177
  0.6887200606732016  0.9505259103791763  0.5308633708296896
  0.6607533227873081  0.1079860172526867  0.2315785319184453
  0.6614852282539778  0.7664061496911357  0.1940431798080458
  0.9632287137862372  0.6537515850826715  0.6033635046804605
  0.5005048762789208  0.5518803720623314  0.6459687273159678
  1.0021650335665548  0.2054284312119038  0.7082520029141940
  0.8159703744429702  0.2995087882599415  0.5454303181314654
  0.8758117572698219  0.7950412294118820  0.6372728208018557
  0.9750523970871022  0.9383327656895994  0.9269845733351533
  0.4714172982102558  0.4882782334050793  0.1486035764110125
  0.9017602553842388  0.8536151999208578  0.7923363474316184
  0.8177090523239268  0.9523700930077080  0.4550265445319802
  0.7110364102320837  0.0666758690752668  0.1683586114914837
  0.8160401481034834  0.9172669147478080  0.1536515548081721
  0.7462620538870111  0.6269025442902149  0.7578383662012604
  0.8810408652423771 -0.0073779408578628  0.4196619224272535
  0.8212008194680548  0.0835416052755867  0.7769800012190947
  0.6320870565263796  0.4643218422169279  0.6031964837606237
  0.6001637951252522  0.1528995064882952  0.7755409815652616
  0.9755177335237942  0.0566496745946962  0.3265183317228945
  0.8185803285105425  0.9523403342939677  0.7038865810545198
  0.5583572265563369  0.0046023749295716  0.1640887408751066
  0.8812278950590496  0.1320237848596072  0.9191269860281024
  0.4750021099425567  0.4428852255457146  0.7542027496243372
  0.8744573319643719  0.0335560280457388  0.5445728723050761
  0.5995594108346919  0.7236951276737540  0.7294387952001348
  0.5046861469842909  0.3305867583052408  0.3473152116284317
  0.4953318865049376  0.2836169972613606  0.1427085919678460
  0.8405538298023756  0.1780377795939420  0.8280568021757835
  0.8430234937859563  0.4886040999856966  0.3032884179984248
  0.9390139240612642  0.2017853731398397  0.9566832475736775
  0.6170703206485109  0.3299725756923824  0.4473720345239903
  0.6928255968102532  0.2141354846611117  0.6094117069745847
  0.9078981454793632  0.3457128855646447  0.8046433587395284
  1.0083853529733364  0.0801574043433076  0.0261558891397114
  0.7135560048755825  0.1106893970574711  0.8999983143978407
  0.5856061209938304  0.8955004751880257  0.7717945129763242
  0.5981108489638137  0.2656332995534489  0.6938160274067146
  0.7146132527166053  0.9875646125008913  0.8984993008746315
  0.8135091867860254  0.2572043021341404  0.5061951571299461
  0.6558131824729845  0.2684868664311637  0.0338643216712656
  0.5058640492489954  0.2982575221752034  0.7213165708019729
  0.5309900920814409  0.3023444578181543  0.7488932052179786
  0.4707809627252311  0.2239721014929280  0.5572740943660145
  0.5062740646951029  0.3266643936192832  0.9524884664066442
  0.7219846423349131  0.8152366722884063  0.9286897508067726
  0.6958718655670066  0.2511109545745731  0.5764345894359992
  0.9693258569339191  0.3857589569269110  0.5238014640096662
  0.5043505803122369  0.4092197938302220  0.1413308908918593
  0.9416253182216022  0.4216940305404123  0.9682154873721831
  0.6626117326382761  0.5271836784840148  0.4472575095800554
  0.7110314408856033  0.6028825746292829  0.2205147450973478
  0.7136899251495780  0.3463852364502059  0.6483229490083766
  0.9315527650921741  0.7854457326744739  0.5536972549208082
  0.7792319806680159  0.7360229849835632  0.6393270206209180
  0.8125487007460009  0.7568229138805852  0.5065852536387330
  0.5675464135550951  0.1750867737494748  0.7998183198128036
  0.3124999929563065  0.3333333352551715  0.7752793356351843
  0.4374999788548771  0.5833332959940303  0.5252793356384958
  0.3437500035211077  0.3541666625930011  0.9747206643710712
  0.5365822372405528  0.8541413660520418  0.2928806996983455
  0.7811785885263828  0.5970632152141326  0.9810812920900184
  0.6650023404341959  0.4360166662973130  0.7506303278493951
  0.5609387520718965  0.7962049059054996  0.1378089639815285
  0.8518815517384982  0.6914161129191831  0.8281766183826970
  0.8195894518364385  0.0058562518775144  0.0808144926156214
  0.1875000070414763  0.5833332959940303  0.5252793356384958
  0.8701142475845478  0.5078765872094978  0.0028606007483565
  0.6198312823580414  0.4109685525101804  0.5551671884977967
  1.0051651424116146  0.2033852039130092  0.9558357892395672
  0.5911227970515808  0.9456117756136608  0.4952871886535453
  0.6594755988959221  0.6130877835556591  0.1426579870328028
  0.5058131094893109  0.0388737870715541  0.8061565239478045
  0.5021005542719490  0.8418723396836371  0.5208760514426307
  0.5868623275986581  0.3477154350084201  0.0499255267014628
  0.8151770673281454  0.3808701926731621  0.3359140704931799
  0.5699396277725842  0.7972283144480404  0.7996114640702618
  0.5571954946067892  0.0034412847448180  0.2564249747669426
  0.4062499964777836  0.5208333139464061  0.0252793373818706
  0.6593851238085530  0.1812014791599253  0.0854110093831745
  0.4062499964777836  0.4791666592536791  0.9747206643710712
  0.3749999858982010  0.4166666446406254  0.4747206643629762
  0.4375000070425850  0.5416666738496650  0.4747206643629762
  0.6004615815334208  0.7324566262221531  0.9797480002956300
  0.4374999788548771  0.5833332959940303  0.0252793373818706
  0.1875000070414763  0.5416666738496650  0.9747206643710712
  0.3749999858982010  0.4583333318987818  0.5252793356384958
  0.2187499894333509  0.6041666884456511  0.9747206643710712
  0.3437500035211077  0.3958333173027960  0.2752793356270892
  0.3437500035211077  0.3958333173027960  0.7752793356351843
  0.2187499894333509  0.6458332780416546  0.5252793356384958
  0.4375000070425850  0.5416666738496650  0.2247206503250921
  0.3749999858982010  0.4583333318987818  0.2752793356270892
  0.2187499894333509  0.6458332780416546  0.7752793356351843
  0.3437500035211077  0.3958333173027960  0.5252793356384958
  0.2187499894333509  0.6041666884456511  0.7247206643743830
  0.4062499964777836  0.4791666592536791  0.4747206643629762
  0.2500000845760577  0.6666666704932754  0.9747206643710712
  0.4062499964777836  0.5208333139464061  0.7752793356351843
  0.4375000070425850  0.5416666738496650  0.9747206643710712
  0.3749999858982010  0.4166666446406254  0.7247206643743830
  0.3749999858982010  0.4583333318987818  0.7752793356351843
  0.7864720346752792  0.7238617489920992  0.7944580889176968
  0.4723931116696945  0.8927690554542079  0.1120342695697150
  0.6003906977190403  0.0691798901947819 -0.0010393145191280
  0.4944684856237499  0.4090226424044327  0.8935225232610936
  0.6812189658436604  0.5905547188349857  0.2003628465989873
  0.8682345171607772  0.4229369042493851  0.2265553305632996
  0.7565276629329690  0.6704294527984535  0.7949163414235493
  0.7104972562860695  0.8990892617248871  0.7768834564266474
  0.9711829980576864  0.6138371634814787  0.6471755982309215
  0.6234882407569402  0.2500901307462576  0.0704855443151203
  0.7755742973607281  0.8531348368088271  0.7932100991754502
  0.6635010891774064  0.8492290453224500  0.3983505676002606
  0.5648206984217347  0.9093919108534065  0.1398013631974227
  0.9428949499648388  0.8280852262505759  0.5990765501119747
  0.8136373257806720  0.7564462335061246  0.6640453431343499
  0.5543548719273433  0.6277850172941393  0.8317242225603229
  0.6914489253387258  0.8685747135361825  0.4151718350733446
  0.6181203467800572  0.7871582998334983  0.1495641504223325
  0.9728923447079563  0.4718549576263270  0.1409650006007465
  0.9947054992963510  0.2058903939789851  0.1932986530944707
  0.8505963052691063  0.5261235402451414  0.6076998624662167
  0.6959466967002517  0.4554733045933297  0.1033505125321815
  0.6514585714872587  0.0136324703409534  0.8585109504433639
  0.9321324214902200  0.7916127670203583  0.2929074494042182
  0.9638377945348162  0.0965212387653445  0.2279754721481224
  0.4752943351630114  0.2639826932860071  0.7760680412859772
  0.5571143488710373  0.2156461626961871  0.9531384415269147
  0.4939060983759193  0.4237880314339280  0.2228623927088709
  0.6312631979277186 -0.0022965252941591  0.4940696400769515
  0.6293968319856239  0.8806810480713062  0.6767137217283373
  0.7830806457231861  0.7790788217523378  0.2801889941875664
  0.9991222268559763  0.4068981620491753  0.0474346989041269
  0.4720515794122569  0.5177331220518901  0.1923148956668107
  0.8765135241405972  0.0423283350926834  0.9660379974482820
  0.9311672070538645  0.2980019197221617  0.2970430850837394
  0.7179535251948488  0.1929164657146101  0.4925474880574791
  0.5033290990640056  0.4647287738222797  0.1104770051460193
  0.9104200718251698  0.0285476216016845  0.8503679730469267
  0.6829750294054928  0.0911706127138352  0.0287446527449966
  0.4925655016530658  0.6652465125444216  0.4002278220817340
  0.9325920884276983  0.2023779909168873  0.0991628884646136
  0.9751854186043771  0.2308405197985264  0.8058397046486062
  0.6929033403069560  0.7920201669893860  0.2317166983639246
  1.0057060977970786  0.7006605637399074  0.3558160071241260
  0.8675019974864270  0.5030472134452225  0.7539164895211483
  0.7267320419393658  0.8511969733412156  0.7218473966768493
  0.9933095076524617  0.8761867757783869  0.4265188831998830
  0.9420072862198546  0.3410509795258034  0.7715982384828984
  0.8694650413485484  0.3810769171206215  0.9163243614075273
  0.8071705911048355  0.7878090891899474  0.4809463153658738
  0.8078381700560670  0.7045582849573251  0.1932922891529634
  0.6001665731320244  0.7356894137161131  0.4770710772515825
  0.7110081859787000  0.4780032138617784  0.9705310593683065
  0.9386101831970772  0.0495758112260839  0.8900715765748317
  0.5605029886609747  0.5346945106794690  0.9017261478780915
  0.8461129805818361  0.7390349029067258  0.2245386675523116
  0.4725023119520841  0.5948924041368604  0.2249745049714263
  0.9015818003694331  0.2284286004151511  0.2322021646396566
  0.5385214428019447  0.0630725939988852  0.2449684070163822
  0.8784628767922923  0.5894963885069280  0.4439106015769906
  0.9043382533062541  0.9473327040446579  0.0015704726386154
  0.6216485114884893  0.7172501278238265  0.7780584291433607
  0.9065471535858645  0.0108654036664489  0.7772822161515599
  0.5600390257502135  0.5931275808337976  0.9492591673807131
  0.9938554942608762  0.6319981177874767 -0.0020329379491658
  0.9935735582670890  0.4538871083963582  0.6953366349508698
  0.8765467542253512  0.9503621130748394  0.8597544805620302
  0.6926618882789587  0.2999816028127166  0.9751128099554482
  0.6221225978010878  0.2157875567695734  0.0990942995973640
  0.8133710889993457 -0.0073458267377752  0.6647215880687183
  0.4943916298867179  0.1591888752128879  0.8022213580405445
  0.6319740059799597  0.6604450478107934  0.3009256994819574
  0.6594456710564459  0.9451265996643388  0.0049605468310286
  0.8059516636356073  0.2023349803236728  0.8514767523890375
  0.4715225279964554  0.7196314726531484  0.9730612037503390
  0.6939834111303941  0.5409076931808949  0.7187306847430067
  0.9363821894388433  0.4900910930436792  0.5811189607496344
  0.6622487117953916  0.7358501122696092  0.2277355562579085
  0.6304690576174198 -0.0008903307763220  0.7430906219181468
  0.6804642688475303  0.1217363838503550  0.9162322338673355
  0.8736914953421552  0.0065069016496211  0.0066934961631201
  0.8407206724081806  0.8180325552580121  0.0067914948416428
  0.5031750203865863  0.7431851445061962  0.3349709228896690
  0.9061960242914228  0.4474585495075783  0.8271289419820861
  0.7257188446324703  0.6938334593667550  0.0000666142038113
  0.4755593420509074  0.0265733609194148  0.6071695108975136
  0.4674329250543902  0.8060408049297734  0.4275392465962450
  0.9616787350820810  0.5682215868342293  0.4187973122313153
  0.5615206714316777  0.1186603003216937  0.5723205632998493
  0.5596906170600179  0.4232496717168140  0.0560962452243037
  0.4955593725711038  0.4597137015975186  0.7828302963524540
  0.7560384101675302  0.4572823046660165  0.7816833877293278
  0.8435083008415452  0.0939298868987267  0.8956143628062595
  0.7141134350812860  0.4321657932545360  0.0732277360850845
  0.7814255327612798  0.0114107658762582  0.5287336486882258
  0.8154099435715307  0.7577509461047648  0.5841783659734623
  0.8151432560538265  0.5740909291319864  0.5280246081145109
  0.5046771197185301  0.5902305605424297  0.7046366442106571
  0.5987749728392874  0.5628725847800732  0.9135435131718801
  0.7223428495437775  0.1886736599287384  0.6628029425121373
  0.6576883470140428  0.8883953161163365  0.3485300756445067
  0.6323189465932113  0.4635562020033897  0.5231370259081966
  0.8166642633961636  0.7143455416511718  0.9442394525295511
  0.5983643379030943  0.9704253583672553  0.0497051236443774
  0.7114910966828992  0.0992242448146617  0.0526897861043876
  0.5915118947356680  0.0301119964826711  0.4470632033947195
  0.5390496033652690  0.4822637477950545  0.0531830309676351
  0.8384145120300325  0.6888454922522824  0.6638550553972566
  0.9082017640314739  0.1383106764739778  0.5196113087142298
  0.6586914801254248  0.4889194514256854  0.9758798687952586
  0.9951827961067382  0.8674476072709628  0.0827311535629585
  0.8136664280704133  0.3654205425617769  0.9237108447015357
  0.6315857969713197  0.8804101573572256  0.5755516102018667
  0.5986240086129387  0.1934559976179646  0.3344833209432710
  1.0057543485976290  0.0424337695435214  0.9680336011733517
  0.4653747516270877  0.4433559884057225  0.9272309629449547
  0.6188316814017442 -0.0069938909767048  0.6688415816596065
  0.8454298036550650  0.5955996774589383  0.8910313762086117
  0.5553582375111213  0.5029586526252586  0.3246147592389025
  0.6519711203805562  0.0986163810948338  0.9807971965042644
  1.0057661408071228  0.3682887708613486  0.0825819576139356
  0.7888205745995575  0.0187751342524002  0.8586723589617942
  0.9129564449746125  0.6004750645813572  0.7951145558657068
  0.5935655647303183  0.1493811668813061  0.2669973296408916
  0.8475538301226188  0.1867550044480375  0.6628615430404048
  0.5230118435264218  0.2693625703521264  0.3514144778512825
  0.8463384657460516  0.4310286732046872  0.8228465368743677
  0.7500526907094585  0.9504472448283724  0.9556963799843873
  0.7458840506875836  0.5784354460512601  0.8478447262570977
  0.9304447704135725  0.0893397669615392  0.8530853982903686
  0.5989319031051461  0.3174843467833284  0.7557347209468460
  0.8679118763977707  0.8737583836170023  0.7448014995699246
  0.6312838321018690  0.3396728577851892  0.1970713299215385
  0.9029096262669416  0.2797236804957451  0.0224249716514892
  0.7819625397009803  0.2220842124534801  0.9683818160967693
  0.8062510656172002  0.4130970021969327  0.4801788735409809
  0.4964442936010990  0.3277012956763057  0.2688092355498411
  0.8368114068741203  0.0267801477603415  0.6064169455695189
  0.7860311418820212  0.7654127137174676  0.1102141508267142
  0.9937188208404986  0.3267615441165527  0.1974644566373665
  1.0046888045085129  0.9126986952707716  0.1389019694525818
  0.9921915278955954  0.7917077718919067  0.2957502589813679
  0.6907504890143326  0.0085612631199568  0.5827932295639120
  0.6812760979978881  0.3758907687287016  0.4937559927893908
  0.7165627664190799  0.3152906914487034  0.6790259043853591
  0.9297408263770482  0.4128381494627303  0.6482901153454724
  0.5683505899442007  0.5367817865198224  0.5448085733581615
  0.5934559138037416  0.7207256639531352  0.5549288078826958
  0.4062499964777836  0.5208333139464061  0.5252793356384958
  0.4728781631054251  0.8893617520213039  0.7807515430775825
  0.4682215482536576  0.3049618377230710  0.2440457417548010
  0.9412393796005802  0.9624358752872398  0.9572465424725772
  0.8700133188684261  0.5816110999639077  0.0972786064988217
  0.9687088954183041  0.6515062536591658  0.3470767492129785
  0.5338791631062070  0.8565035181598963  0.5581268764287579
  0.5355616347606379  0.7796449441789562  0.2014098151597608
  0.8078462669792549  0.3788795040137076  0.4140810638203924
  0.5670783369075917  0.4208754305098596  0.3065726528368405
  0.4972614418542988  0.3293177470905312  0.6924104441196236
  0.9977690304955351  0.3695282830665905  0.9136865943230114
  0.6507476919279437  0.0149319660939966  0.0997308739540286
  0.8158586432337568  0.0927412571943389  0.1990712464658605
  0.7540578322072923  0.9198257975469033  0.7925725677566112
  0.7455483097408395  0.7034925828601085  0.6108249182519057
  0.8509613092992728  0.9007344469117617  0.1971367575931935
  0.7439320128553356  0.1674644264148590  0.4019747113980564
  0.8383317776554795  0.6402351006147362  0.0993717654056115
  1.0010644515815392  0.2403124152623374  0.2526595875374859
  0.8459657097098822  0.6042063905129064  0.2913863292776250
  0.4651545251717044  0.0953998597079793  0.0527683008959624
  0.7535049656864482  0.7169823271994926  0.0284696685175181
  0.9766889005398468  0.7753460495275770  0.0246864945246459
  0.8499705506590778  0.5274788416868843  0.4526662984151090
  0.7531326238972657 -0.0089441553924696  0.1737740686199957
  0.9030305030976544  0.0641551549928336  0.2418962188220109
  0.8431229066941164  0.9847686731744906  0.1529372921205948
  0.5357533602253931  0.6955030863762930  0.5823882738769181
  0.8113103973721620  0.4238518211407354  0.5437572871060005
  0.9287460480361042  0.7492453927119289  0.6720704835366834
  0.7792511701605480  0.0154648674343364  0.1116808445391547
  0.9030902128316167  0.4281974617000147  0.0019325492452467
  0.8371213018993553  0.3907352234952370  0.8583136446452123
  0.8788276788032300  0.4494594583654598  0.0274933187234116
  1.0073161406671924  0.7478249817890498  0.5046256555859956
  0.4642262574852413  0.5139254765228974  0.4453500017282784
  0.8185267985405704  0.1607591514891267  0.3039397765248303
  0.7737133959782175  0.6899183410697970  0.9249746470796245
  0.5589180191740171  0.2411287715135250  0.3317833384923964
  0.5035307924559111  0.4913902841642811  0.5824276371485118
  0.5647901988837982  0.2857700992614346  0.8887207107285144
  0.9324358653261074  0.0344270541084380  0.2962516916148343
  0.6335555914668651  0.2932153847456430  0.8936671535076087
  0.6270095400602927  0.3689146752655697  0.3223718925683821
  0.6295490425607051  0.4130913735183718  0.3886457838288910
  0.9716603451748058  0.8174127734765871  0.0720008299760796
  0.6821512938773082  0.4099802013081758  0.6496176634535730
  0.6509328762925084  0.9711695196663017  0.5514850476189251
  0.6633344964576250  0.5268566335605706  0.1033137333546164
  0.5368191379594346  0.8910268555331040  0.3599109652246533
  0.6191942524113444  0.8805316755292560  0.0745166738771144
  0.6846852329123005  0.7180424767000155  0.4498895080816728
  0.6877424766739737  0.2987119816544779  0.6519756239541070
  0.9970256490591318  0.5057732807352109  0.0725214482146601
  0.5312810232769560  0.9876045971730997  0.6405673356773611
  0.6328422512337754  0.8797794997462769  0.3290453896089098
  0.9431621071117768  0.3808455263708008  0.9162535809046138
  0.7557099906163492  0.3400210847096942  0.0217581327063493
  0.9385476694856397  0.1735434417309921  0.0434772008379988
  0.6938167908637902  0.1738548245135560  0.6455444479249721
  0.8773556420238864  0.0737185074182901  0.9481291413637828
  0.5950083580245173  0.1871531450188846  0.7587364782354719
  0.5337994153135149  0.0966082922539891  0.5553277964692623
  0.5000662367771679 -0.0097461825479299  0.7472897300031318
  1.0070677902356497  0.4199581266801372  0.1410546030934380
  0.8793259279828075  0.3701917479325465  0.3356860490497258
  0.4692465817769563  0.4704531342952824  0.4001843593145919
  0.9981072613228104  0.2859755946863405  0.3070328616233031
  0.4765750711000623  0.3510294292239176  0.8924160814496503
  0.8696255074702517  0.3819649909685769  0.5755439222921299
  0.9309133100670660  0.0845275260639652  0.0986055719706145
  0.6900450415599444  0.7576920653197842 -0.0052501776765826
  0.6257432583384606  0.0011257614853065  0.3379330566625947
  0.6604315710214406  0.8071235985887345 -0.0062573210011170
  0.7563700449785532  0.4941567358232383  0.3327030300265027
  0.5644606900117715  0.8247702361045324  0.2044952938475889
  0.7156395383423317  0.7387568541135175  0.1455806247976689
  0.5286870564485814  0.8612376270705138  0.2305766504328503
  0.7513213465470289  0.5094481764978711  0.6739550892569965
  0.9359543192876921  0.4068492275015141  0.4767067812341157
  0.9077411832412027  0.5524344546127167  0.2506637959749380
  0.8801706326999761  0.7029639625188180  0.8489480014048951
  0.5660174596634091  0.7586267192161005 -0.0032213620820938
  0.5932081692158211  0.6426288150724854  0.0336494292676811
  0.5037150698832550  0.9655317565438364  0.7803555762398716
  0.9931579424784641  0.2030060721901571  0.0220442462776650
  0.8435402807351816  0.4291808032733501  0.9259585811124917
  0.6815302490257599  0.5343051293159102  0.0484036949282136
  0.6580672000270575  0.3200870813471506  0.8235384522975207
  0.8770520812575016  0.6596583751996036  0.1394649999277666
  0.9934846166314528  0.2453351474936899  0.0836269610254052
  0.5011897263118255  0.5093122032964974  0.4173350590238918
  0.7871408850580648  0.0692981025782285  0.8322220418926847
  0.9742448742181564  0.5603177258177255  0.5066713855435572
  0.8737919011855870  0.2175667328332202  0.5216544168619812
  0.9360803271644308  0.0423571845785138  0.3868745508899510
  0.5054175635502649  0.0073798763904358  0.5820826396190057
  0.3749999858982010  0.4166666446406254  0.9747206643710712
  0.5856243234815361  0.3996070373412901  0.6030394999888231
  0.4062499964777836  0.5208333139464061  0.2752793356270892
  0.1875000070429546  0.0416666669132969  0.9747206643710712
  0.4062499964763053  0.9791666458451878  0.2247206503250921
  0.3749999013188174  0.9583333184902906  0.2752793356270892
  0.4062499964763053  0.9791666458451878  0.4747206643629762
  0.3749999013188174  0.9583333184902906  0.5252793356384958
  0.4062499964763053  0.9791666458451878  0.7247206643743830
  0.3749999013188174  0.9583333184902906  0.7752793356351843
  0.4062499964763053  0.9791666458451878  0.9747206643710712
  0.3749999013188174  0.9583333184902906  0.0252793373818706
  0.1874999929564911  0.0833333338095259  0.0252793373818706
  0.1562499964781532  0.0208333334481145  0.7752793356351843
  0.3437500317221187  0.8541666817499394  0.9747206643710712
  0.1875000070429546  0.0416666669132969  0.7247206643743830
  0.1562499964781532  0.0208333334481145  0.5252793356384958
  0.3437499189417241  0.8958332713288750  0.0252793373818706
  0.1875000070429546  0.0416666669132969  0.4747206643629762
  0.1562499964781532  0.0208333334481145  0.2752793356270892
  0.3750000140992121  0.9166666637975637  0.2247206503250921
  0.1875000070429546  0.0416666669132969  0.2247206503250921
  0.1562499964781532  0.0208333334481145  0.0252793373818706
  0.3124999365646309  0.8333332892812507  0.7752793356351843
  0.2187500035212925  0.1041666611644233  0.2247206503250921
  0.3125000493302443  0.7916666345885239  0.4747206643629762
  0.2499999999996305  0.2083333223288466  0.5252793356384958
  0.2499999718104442  0.7083333252030699  0.2752793356270892
  0.2812500669531511  0.7291666525408995  0.4747206643629762
  0.3437500035211077  0.3541666625930011  0.2247206503250921
  0.3124999929563065  0.3333333352551715  0.0252793373818706
  0.2499999718104442  0.7083333252030699  0.5252793356384958
  0.3124999929563065  0.2916666479970151  0.9747206643710712
  0.2812500105792131  0.2708333369248325  0.7752793356351843
  0.2812500669531511  0.7291666525408995  0.7247206643743830
  0.3124999929563065  0.2916666479970151  0.7247206643743830
  0.2812500105792131  0.2708333369248325  0.5252793356384958
  0.2499999718104442  0.7083333252030699  0.7752793356351843
  0.2812500669531511  0.7291666525408995  0.9747206643710712
  0.3124999929563065  0.2916666479970151  0.4747206643629762
  0.2812500105792131  0.2708333369248325  0.2752793356270892
  0.3124999929563065  0.2916666479970151  0.2247206503250921
  0.2812500105792131  0.2708333369248325  0.0252793373818706
  0.2812499541875375  0.7708333072506944  0.0252793373818706
  0.3125000493302443  0.7916666345885239  0.2247206503250921
  0.2812500105792131  0.2291666659493909  0.9747206643710712
  0.2499999999996305  0.2083333223288466  0.7752793356351843
  0.2812500105792131  0.2291666659493909  0.7247206643743830
  0.3437499189417241  0.8958332713288750  0.2752793356270892
  0.3124999929563065  0.3333333352551715  0.2752793356270892
  0.3750000140992121  0.9166666637975637  0.4747206643629762
  0.3750000140992121  0.9166666637975637  0.7247206643743830
  0.4062501092419188  0.8541666817499394  0.2247206503250921
  0.2187499894348291  0.3541666625930011  0.2247206503250921
  0.1875000070429546  0.3333333352551715  0.0252793373818706
  0.3750000140992121  0.8333332892812507  0.2752793356270892
  0.4062501092419188  0.8541666817499394  0.4747206643629762
  0.2499999999996305  0.4166666446406254  0.9747206643710712
  0.1874999929564911  0.2916666479970151  0.9747206643710712
  0.2499999999996305  0.4583333318987818  0.0252793373818706
  0.3750000140992121  0.7916666345885239  0.2247206503250921
  0.1875000070429546  0.3333333352551715  0.2752793356270892
  0.3437500035211077  0.6041666884456511  0.2247206503250921
  0.3124999365646309  0.7083333252030699  0.0252793373818706
  0.3437500317221187  0.7291666525408995  0.2247206503250921
  0.3125000211440144  0.5416666738496650  0.9747206643710712
  0.2812499823767238  0.5208333139464061  0.7752793356351843
  0.3125000211440144  0.5416666738496650  0.7247206643743830
  0.2812499823767238  0.5208333139464061  0.5252793356384958
  0.3124999365646309  0.7083333252030699  0.2752793356270892
  0.3437500317221187  0.7291666525408995  0.4747206643629762
  0.3125000211440144  0.5416666738496650  0.4747206643629762
  0.3124999929563065  0.5833332959940303  0.0252793373818706
  0.2187499894348291  0.3541666625930011  0.4747206643629762
  0.3750000140992121  0.8333332892812507  0.0252793373818706
  0.1875000070429546  0.3333333352551715  0.5252793356384958
  0.3437499189417241  0.8958332713288750  0.7752793356351843
  0.3750000140992121  0.9166666637975637  0.9747206643710712
  0.1875000070429546  0.1666666676190519  0.9747206643710712
  0.1562499964781532  0.1458333239985076  0.7752793356351843
  0.1562500246643830  0.3541666625930011  0.7247206643743830
  0.2187500035212925  0.3958333173027960  0.7752793356351843
  0.3437500317221187  0.7708333072506944  0.2752793356270892
  0.3750000140992121  0.7916666345885239  0.4747206643629762
  0.2499999999996305  0.4166666446406254  0.7247206643743830
  0.2187500035212925  0.3958333173027960  0.5252793356384958
  0.2499999999996305  0.4166666446406254  0.4747206643629762
  0.2187500035212925  0.3958333173027960  0.2752793356270892
  0.3437500317221187  0.7708333072506944  0.5252793356384958
  0.3750000140992121  0.7916666345885239  0.7247206643743830
  0.2499999999996305  0.4166666446406254  0.2247206503250921
  0.2187500035212925  0.3958333173027960  0.0252793373818706
  0.2187499894348291  0.3541666625930011  0.9747206643710712
  0.1875000070429546  0.3333333352551715  0.7752793356351843
  0.3437500317221187  0.7708333072506944  0.7752793356351843
  0.3750000140992121  0.7916666345885239  0.9747206643710712
  0.2187499894348291  0.3541666625930011  0.7247206643743830
  0.3437499189417241  0.8958332713288750  0.5252793356384958