supercell-21x21x7
 1.0000000000000000
    88.7404937764181199    0.0000000000000000    0.0000000000000000
    44.3702468882090599   76.8515219550015587    0.0000000000001953
     0.0000000000000000    0.0000000000005523   77.2045962576384568
 Ge  Te 
 9261 9261
Direct
  0.0000000000000000  0.0000000000000000  0.0000000000000000
  0.5396825396825398  0.6349206349206351  0.7619047619047623
  0.5555555555555555  0.6507936507936507  0.8095238095238092
  0.5238095238095238  0.6190476190476191  0.8571428571428570
  0.5396825396825398  0.6349206349206351  0.9047619047619050
  0.5555555555555555  0.6507936507936507  0.9523809523809520
  0.5238095238095238  0.6666666666666666  0.0000000000000000
  0.5396825396825398  0.6825396825396826  0.0476190476190480
  0.5555555555555554  0.6984126984126984  0.0952380952380949
  0.5238095238095238  0.6666666666666666  0.1428571428571428
  0.5238095238095238  0.6190476190476191  0.7142857142857143
  0.5396825396825398  0.6825396825396826  0.1904761904761908
  0.5238095238095238  0.6666666666666666  0.2857142857142857
  0.5396825396825398  0.6825396825396826  0.3333333333333337
  0.5555555555555555  0.6984126984126983  0.3809523809523807
  0.5238095238095238  0.6666666666666666  0.4285714285714286
  0.5396825396825398  0.6825396825396826  0.4761904761904766
  0.5555555555555555  0.6984126984126983  0.5238095238095235
  0.5238095238095238  0.6666666666666666  0.5714285714285714
  0.5396825396825398  0.6825396825396826  0.6190476190476194
  0.5555555555555555  0.6984126984126983  0.6666666666666664
  0.5555555555555555  0.6984126984126983  0.2380952380952377
  0.5238095238095238  0.6666666666666666  0.7142857142857144
  0.5555555555555555  0.6507936507936506  0.6666666666666664
  0.5238095238095238  0.6190476190476191  0.5714285714285714
  0.5396825396825398  0.5873015873015873  0.6190476190476195
  0.5555555555555554  0.6031746031746030  0.6666666666666664
  0.5238095238095237  0.5714285714285714  0.7142857142857143
  0.5396825396825397  0.5873015873015874  0.7619047619047623
  0.5555555555555552  0.6031746031746031  0.8095238095238092
  0.5238095238095237  0.5714285714285714  0.8571428571428572
  0.5396825396825397  0.5873015873015874  0.9047619047619051
  0.5555555555555552  0.6031746031746031  0.9523809523809521
  0.5238095238095238  0.6190476190476191  0.0000000000000000
  0.5396825396825398  0.6349206349206350  0.6190476190476195
  0.5396825396825398  0.6349206349206350  0.0476190476190480
  0.5238095238095238  0.6190476190476191  0.1428571428571428
  0.5396825396825398  0.6349206349206350  0.1904761904761908
  0.5555555555555555  0.6507936507936506  0.2380952380952377
  0.5238095238095238  0.6190476190476191  0.2857142857142857
  0.5396825396825398  0.6349206349206350  0.3333333333333337
  0.5555555555555555  0.6507936507936506  0.3809523809523806
  0.5238095238095238  0.6190476190476191  0.4285714285714286
  0.5396825396825398  0.6349206349206350  0.4761904761904766
  0.5555555555555555  0.6507936507936506  0.5238095238095235
  0.5555555555555555  0.6507936507936507  0.0952380952380949
  0.5238095238095237  0.5714285714285714  0.5714285714285714
  0.5396825396825398  0.6825396825396827  0.7619047619047623
  0.5238095238095238  0.6666666666666666  0.8571428571428572
  0.5396825396825398  0.7777777777777778  0.0476190476190480
  0.5555555555555554  0.7936507936507936  0.0952380952380949
  0.5238095238095238  0.7619047619047619  0.1428571428571428
  0.5396825396825398  0.7777777777777778  0.1904761904761908
  0.5555555555555554  0.7936507936507935  0.2380952380952377
  0.5238095238095238  0.7619047619047619  0.2857142857142857
  0.5396825396825398  0.7777777777777778  0.3333333333333337
  0.5555555555555554  0.7936507936507935  0.3809523809523806
  0.5238095238095238  0.7619047619047619  0.4285714285714286
  0.5238095238095238  0.7619047619047619  0.0000000000000000
  0.5396825396825398  0.7777777777777778  0.4761904761904766
  0.5238095238095238  0.7619047619047619  0.5714285714285714
  0.5396825396825398  0.7777777777777778  0.6190476190476195
  0.5555555555555554  0.7936507936507935  0.6666666666666664
  0.5238095238095238  0.7619047619047619  0.7142857142857143
  0.5396825396825398  0.7777777777777779  0.7619047619047623
  0.5555555555555554  0.7936507936507936  0.8095238095238092
  0.5238095238095238  0.7619047619047619  0.8571428571428572
  0.5396825396825398  0.7777777777777779  0.9047619047619050
  0.5555555555555554  0.7936507936507936  0.9523809523809520
  0.5555555555555554  0.7936507936507935  0.5238095238095235
  0.5555555555555554  0.6984126984126984  0.8095238095238093
  0.5555555555555554  0.7460317460317459  0.9523809523809521
  0.5238095238095238  0.7142857142857143  0.8571428571428572
  0.5396825396825398  0.6825396825396827  0.9047619047619051
  0.5555555555555554  0.6984126984126984  0.9523809523809520
  0.5238095238095238  0.7142857142857143  0.0000000000000000
  0.5396825396825398  0.7301587301587302  0.0476190476190480
  0.5555555555555554  0.7460317460317459  0.0952380952380949
  0.5238095238095238  0.7142857142857143  0.1428571428571428
  0.5396825396825398  0.7301587301587302  0.1904761904761909
  0.5555555555555555  0.7460317460317458  0.2380952380952378
  0.5238095238095238  0.7142857142857143  0.2857142857142857
  0.5396825396825398  0.7301587301587303  0.9047619047619051
  0.5396825396825398  0.7301587301587302  0.3333333333333337
  0.5238095238095238  0.7142857142857143  0.4285714285714285
  0.5396825396825398  0.7301587301587302  0.4761904761904766
  0.5555555555555555  0.7460317460317458  0.5238095238095234
  0.5238095238095238  0.7142857142857143  0.5714285714285714
  0.5396825396825398  0.7301587301587302  0.6190476190476195
  0.5555555555555555  0.7460317460317458  0.6666666666666664
  0.5238095238095238  0.7142857142857143  0.7142857142857143
  0.5396825396825398  0.7301587301587303  0.7619047619047623
  0.5555555555555554  0.7460317460317459  0.8095238095238092
  0.5555555555555555  0.7460317460317458  0.3809523809523807
  0.5238095238095237  0.8095238095238095  0.0000000000000000
  0.5555555555555554  0.6031746031746030  0.5238095238095234
  0.5238095238095237  0.5714285714285714  0.4285714285714285
  0.5396825396825398  0.4444444444444445  0.1904761904761908
  0.5555555555555555  0.4603174603174602  0.2380952380952378
  0.5238095238095238  0.4285714285714285  0.2857142857142857
  0.5396825396825398  0.4444444444444445  0.3333333333333338
  0.5555555555555555  0.4603174603174602  0.3809523809523807
  0.5238095238095238  0.4285714285714285  0.4285714285714286
  0.5396825396825398  0.4444444444444445  0.4761904761904766
  0.5555555555555555  0.4603174603174602  0.5238095238095235
  0.5238095238095238  0.4285714285714285  0.5714285714285714
  0.5238095238095238  0.4285714285714285  0.1428571428571428
  0.5396825396825398  0.4444444444444445  0.6190476190476195
  0.5238095238095238  0.4285714285714285  0.7142857142857143
  0.5396825396825398  0.4444444444444446  0.7619047619047623
  0.5555555555555554  0.4603174603174602  0.8095238095238092
  0.5238095238095238  0.4285714285714285  0.8571428571428572
  0.5396825396825398  0.4444444444444446  0.9047619047619051
  0.5555555555555554  0.4603174603174602  0.9523809523809521
  0.5238095238095238  0.4761904761904762  0.0000000000000000
  0.5396825396825398  0.4920634920634921  0.0476190476190480
  0.5555555555555554  0.5079365079365079  0.0952380952380949
  0.5555555555555555  0.4603174603174602  0.6666666666666664
  0.5238095238095238  0.4761904761904762  0.1428571428571428
  0.5555555555555554  0.4603174603174602  0.0952380952380949
  0.5238095238095238  0.4285714285714285  0.0000000000000000
  0.5396825396825398  0.3968253968253969  0.0476190476190480
  0.5555555555555555  0.4126984126984126  0.0952380952380949
  0.5238095238095238  0.3809523809523809  0.1428571428571428
  0.5396825396825398  0.3968253968253969  0.1904761904761908
  0.5555555555555555  0.4126984126984126  0.2380952380952377
  0.5238095238095238  0.3809523809523809  0.2857142857142857
  0.5396825396825398  0.3968253968253969  0.3333333333333337
  0.5555555555555555  0.4126984126984126  0.3809523809523807
  0.5238095238095238  0.3809523809523809  0.4285714285714286
  0.5396825396825398  0.4444444444444445  0.0476190476190480
  0.5396825396825398  0.3968253968253970  0.4761904761904766
  0.5238095238095238  0.3809523809523809  0.5714285714285714
  0.5396825396825398  0.3968253968253970  0.6190476190476194
  0.5555555555555555  0.4126984126984126  0.6666666666666664
  0.5238095238095238  0.3809523809523809  0.7142857142857144
  0.5396825396825398  0.3968253968253970  0.7619047619047623
  0.5555555555555555  0.4126984126984126  0.8095238095238093
  0.5238095238095238  0.3809523809523809  0.8571428571428572
  0.5396825396825398  0.3968253968253969  0.9047619047619051
  0.5555555555555555  0.4126984126984126  0.9523809523809520
  0.5555555555555555  0.4126984126984126  0.5238095238095235
  0.5396825396825398  0.5873015873015873  0.4761904761904766
  0.5396825396825398  0.4920634920634921  0.1904761904761908
  0.5238095238095238  0.4761904761904762  0.2857142857142857
  0.5396825396825398  0.5396825396825398  0.4761904761904766
  0.5555555555555554  0.5555555555555554  0.5238095238095235
  0.5238095238095237  0.5238095238095238  0.5714285714285714
  0.5396825396825398  0.5396825396825398  0.6190476190476194
  0.5555555555555554  0.5555555555555554  0.6666666666666664
  0.5238095238095237  0.5238095238095238  0.7142857142857144
  0.5396825396825397  0.5396825396825399  0.7619047619047623
  0.5555555555555554  0.5555555555555555  0.8095238095238093
  0.5238095238095237  0.5238095238095238  0.8571428571428572
  0.5238095238095237  0.5238095238095238  0.4285714285714286
  0.5396825396825397  0.5396825396825399  0.9047619047619051
  0.5238095238095237  0.5714285714285714 -0.0000000000000000
  0.5396825396825398  0.5873015873015873  0.0476190476190480
  0.5555555555555552  0.6031746031746031  0.0952380952380949
  0.5238095238095237  0.5714285714285714  0.1428571428571428
  0.5396825396825398  0.5873015873015873  0.1904761904761908
  0.5555555555555554  0.6031746031746030  0.2380952380952378
  0.5238095238095237  0.5714285714285714  0.2857142857142857
  0.5396825396825398  0.5873015873015873  0.3333333333333337
  0.5555555555555554  0.6031746031746030  0.3809523809523807
  0.5555555555555554  0.5555555555555555  0.9523809523809520
  0.5555555555555554  0.5079365079365078  0.2380952380952377
  0.5555555555555554  0.5555555555555554  0.3809523809523807
  0.5238095238095237  0.5238095238095238  0.2857142857142857
  0.5396825396825398  0.4920634920634921  0.3333333333333337
  0.5555555555555554  0.5079365079365078  0.3809523809523806
  0.5238095238095238  0.4761904761904762  0.4285714285714286
  0.5396825396825398  0.4920634920634921  0.4761904761904766
  0.5555555555555554  0.5079365079365078  0.5238095238095235
  0.5238095238095238  0.4761904761904762  0.5714285714285714
  0.5396825396825398  0.4920634920634921  0.6190476190476194
  0.5555555555555554  0.5079365079365078  0.6666666666666664
  0.5238095238095238  0.4761904761904762  0.7142857142857143
  0.5396825396825398  0.5396825396825398  0.3333333333333337
  0.5396825396825398  0.4920634920634922  0.7619047619047622
  0.5238095238095238  0.4761904761904762  0.8571428571428570
  0.5396825396825398  0.4920634920634922  0.9047619047619050
  0.5555555555555554  0.5079365079365079  0.9523809523809520
  0.5238095238095237  0.5238095238095238  0.0000000000000000
  0.5396825396825398  0.5396825396825398  0.0476190476190480
  0.5555555555555554  0.5555555555555555  0.0952380952380949
  0.5238095238095237  0.5238095238095238  0.1428571428571428
  0.5396825396825398  0.5396825396825398  0.1904761904761908
  0.5555555555555554  0.5555555555555554  0.2380952380952377
  0.5555555555555554  0.5079365079365079  0.8095238095238092
  0.5396825396825398  0.8253968253968255  0.0476190476190480
  0.5555555555555554  0.8412698412698411  0.0952380952380949
  0.5238095238095237  0.8095238095238095  0.1428571428571428
  0.6031746031746030  0.0793650793650792  0.9523809523809520
  0.5714285714285714  0.0952380952380952  0.0000000000000000
  0.5873015873015874  0.1111111111111112  0.0476190476190480
  0.6031746031746031  0.1269841269841268  0.0952380952380949
  0.5714285714285714  0.0952380952380952  0.1428571428571428
  0.5873015873015873  0.1111111111111112  0.1904761904761908
  0.6031746031746031  0.1269841269841269  0.2380952380952377
  0.5714285714285714  0.0952380952380952  0.2857142857142857
  0.5873015873015874  0.1111111111111112  0.3333333333333337
  0.5873015873015873  0.0634920634920636  0.9047619047619050
  0.6031746031746031  0.1269841269841269  0.3809523809523807
  0.5873015873015874  0.1111111111111112  0.4761904761904766
  0.6031746031746031  0.1269841269841269  0.5238095238095235
  0.5714285714285714  0.0952380952380952  0.5714285714285714
  0.5873015873015874  0.1111111111111112  0.6190476190476195
  0.6031746031746031  0.1269841269841269  0.6666666666666664
  0.5714285714285714  0.0952380952380952  0.7142857142857143
  0.5873015873015874  0.1111111111111112  0.7619047619047623
  0.6031746031746031  0.1269841269841268  0.8095238095238093
  0.5714285714285714  0.0952380952380952  0.8571428571428572
  0.5714285714285714  0.0952380952380952  0.4285714285714285
  0.5873015873015873  0.1111111111111112  0.9047619047619050
  0.5714285714285714  0.0476190476190476  0.8571428571428570
  0.5873015873015873  0.0634920634920636  0.7619047619047623
  0.6031746031746030  0.0317460317460316  0.8095238095238092
  0.5714285714285714  0.0000000000000000  0.8571428571428572
  0.5873015873015873  0.0158730158730160  0.9047619047619051
  0.6031746031746030  0.0317460317460316  0.9523809523809521
  0.5714285714285714  0.0476190476190476  0.0000000000000000
  0.5873015873015873  0.0634920634920636  0.0476190476190480
  0.6031746031746030  0.0793650793650792  0.0952380952380949
  0.5714285714285714  0.0476190476190476  0.1428571428571428
  0.5873015873015873  0.0634920634920636  0.1904761904761908
  0.6031746031746030  0.0793650793650792  0.8095238095238093
  0.6031746031746030  0.0793650793650792  0.2380952380952377
  0.5873015873015873  0.0634920634920636  0.3333333333333338
  0.6031746031746030  0.0793650793650792  0.3809523809523807
  0.5714285714285714  0.0476190476190476  0.4285714285714286
  0.5873015873015873  0.0634920634920636  0.4761904761904766
  0.6031746031746030  0.0793650793650792  0.5238095238095235
  0.5714285714285714  0.0476190476190476  0.5714285714285714
  0.5873015873015873  0.0634920634920636  0.6190476190476194
  0.6031746031746030  0.0793650793650792  0.6666666666666664
  0.5714285714285714  0.0476190476190476  0.7142857142857144
  0.5714285714285714  0.0476190476190476  0.2857142857142857
  0.5873015873015873  0.0158730158730160  0.7619047619047623
  0.6031746031746031  0.1269841269841269  0.9523809523809520
  0.5873015873015873  0.1587301587301588  0.0476190476190480
  0.6031746031746030  0.2222222222222221  0.2380952380952377
  0.5714285714285714  0.1904761904761905  0.2857142857142857
  0.5873015873015873  0.2063492063492064  0.3333333333333337
  0.6031746031746030  0.2222222222222221  0.3809523809523806
  0.5714285714285714  0.1904761904761905  0.4285714285714286
  0.5873015873015873  0.2063492063492064  0.4761904761904766
  0.6031746031746030  0.2222222222222221  0.5238095238095235
  0.5714285714285714  0.1904761904761905  0.5714285714285714
  0.5873015873015873  0.2063492063492065  0.6190476190476194
  0.5873015873015873  0.2063492063492064  0.1904761904761908
  0.6031746031746030  0.2222222222222221  0.6666666666666664
  0.5873015873015873  0.2063492063492064  0.7619047619047622
  0.6031746031746030  0.2222222222222221  0.8095238095238092
  0.5714285714285714  0.1904761904761905  0.8571428571428570
  0.5873015873015873  0.2063492063492065  0.9047619047619050
  0.6031746031746030  0.2222222222222221  0.9523809523809520
  0.5714285714285714  0.2380952380952381  0.0000000000000000
  0.5873015873015874  0.2539682539682541  0.0476190476190480
  0.6031746031746030  0.2698412698412697  0.0952380952380949
  0.5714285714285714  0.2380952380952381  0.1428571428571428
  0.5714285714285714  0.1904761904761905  0.7142857142857143
  0.5714285714285714  0.1428571428571428 -0.0000000000000000
  0.5714285714285714  0.1904761904761905  0.1428571428571428
  0.5873015873015873  0.2063492063492064  0.0476190476190480
  0.6031746031746031  0.1746031746031745  0.0952380952380949
  0.5714285714285714  0.1428571428571428  0.1428571428571428
  0.5873015873015873  0.1587301587301588  0.1904761904761908
  0.6031746031746031  0.1746031746031745  0.2380952380952377
  0.5714285714285714  0.1428571428571428  0.2857142857142857
  0.5873015873015873  0.1587301587301588  0.3333333333333337
  0.6031746031746031  0.1746031746031745  0.3809523809523806
  0.5714285714285714  0.1428571428571428  0.4285714285714286
  0.5873015873015873  0.1587301587301588  0.4761904761904766
  0.6031746031746030  0.2222222222222221  0.0952380952380949
  0.6031746031746031  0.1746031746031745  0.5238095238095235
  0.5873015873015873  0.1587301587301589  0.6190476190476195
  0.6031746031746031  0.1746031746031745  0.6666666666666664
  0.5714285714285714  0.1428571428571428  0.7142857142857143
  0.5873015873015873  0.1587301587301588  0.7619047619047623
  0.6031746031746031  0.1746031746031745  0.8095238095238092
  0.5714285714285714  0.1428571428571428  0.8571428571428572
  0.5873015873015873  0.1587301587301589  0.9047619047619051
  0.6031746031746031  0.1746031746031745  0.9523809523809521
  0.5714285714285714  0.1904761904761905  0.0000000000000000
  0.5714285714285714  0.1428571428571428  0.5714285714285714
  0.5714285714285714  0.0000000000000000  0.7142857142857143
  0.6031746031746030  0.0317460317460316  0.6666666666666664
  0.5873015873015873  0.0158730158730160  0.6190476190476195
  0.5396825396825398  0.8730158730158730  0.3333333333333337
  0.5555555555555554  0.8888888888888886  0.3809523809523807
  0.5238095238095237  0.8571428571428571  0.4285714285714285
  0.5396825396825398  0.8730158730158730  0.4761904761904766
  0.5555555555555552  0.8888888888888888  0.5238095238095235
  0.5238095238095237  0.8571428571428571  0.5714285714285714
  0.5396825396825398  0.8730158730158730  0.6190476190476195
  0.5555555555555554  0.8888888888888886  0.6666666666666664
  0.5238095238095237  0.8571428571428571  0.7142857142857143
  0.5238095238095237  0.8571428571428571  0.2857142857142857
  0.5396825396825398  0.8730158730158730  0.7619047619047623
  0.5238095238095237  0.8571428571428571  0.8571428571428572
  0.5396825396825398  0.8730158730158730  0.9047619047619051
  0.5555555555555554  0.8888888888888886  0.9523809523809521
  0.5238095238095237  0.9047619047619048  0.0000000000000000
  0.5396825396825397  0.9206349206349207  0.0476190476190480
  0.5555555555555554  0.9365079365079363  0.0952380952380949
  0.5238095238095237  0.9047619047619048  0.1428571428571428
  0.5396825396825395  0.9206349206349209  0.1904761904761908
  0.5555555555555552  0.9365079365079364  0.2380952380952378
  0.5555555555555552  0.8888888888888888  0.8095238095238093
  0.5238095238095237  0.9047619047619048  0.2857142857142857
  0.5555555555555552  0.8888888888888888  0.2380952380952377
  0.5238095238095237  0.8571428571428571  0.1428571428571428
  0.5396825396825398  0.8253968253968255  0.1904761904761908
  0.5555555555555554  0.8412698412698412  0.2380952380952377
  0.5238095238095237  0.8095238095238095  0.2857142857142857
  0.5396825396825398  0.8253968253968255  0.3333333333333338
  0.5555555555555554  0.8412698412698411  0.3809523809523807
  0.5238095238095237  0.8095238095238095  0.4285714285714286
  0.5396825396825398  0.8253968253968255  0.4761904761904766
  0.5555555555555554  0.8412698412698412  0.5238095238095235
  0.5238095238095237  0.8095238095238095  0.5714285714285714
  0.5396825396825395  0.8730158730158732  0.1904761904761908
  0.5396825396825398  0.8253968253968255  0.6190476190476194
  0.5238095238095237  0.8095238095238095  0.7142857142857144
  0.5396825396825397  0.8253968253968256  0.7619047619047623
  0.5555555555555554  0.8412698412698412  0.8095238095238093
  0.5238095238095237  0.8095238095238095  0.8571428571428572
  0.5396825396825397  0.8253968253968256  0.9047619047619051
  0.5555555555555554  0.8412698412698412  0.9523809523809520
  0.5238095238095237  0.8571428571428571  0.0000000000000000
  0.5396825396825398  0.8730158730158730  0.0476190476190480
  0.5555555555555554  0.8888888888888886  0.0952380952380949
  0.5555555555555554  0.8412698412698411  0.6666666666666664
  0.5396825396825397  0.9206349206349207  0.3333333333333337
  0.5555555555555554  0.9365079365079363  0.3809523809523807
  0.5238095238095237  0.9047619047619048  0.4285714285714286
  0.5555555555555555  0.9841269841269839  0.6666666666666664
  0.5238095238095238  0.9523809523809523  0.7142857142857143
  0.5396825396825398  0.9682539682539683  0.7619047619047622
  0.5555555555555554  0.9841269841269841  0.8095238095238092
  0.5238095238095238  0.9523809523809523  0.8571428571428572
  0.5396825396825398  0.9682539682539683  0.9047619047619051
  0.5555555555555555  0.9841269841269839  0.9523809523809520
  0.5714285714285714  0.0000000000000000  0.0000000000000000
  0.5873015873015873  0.0158730158730160  0.0476190476190480
  0.5396825396825398  0.9682539682539683  0.6190476190476194
  0.6031746031746030  0.0317460317460316  0.0952380952380949
  0.5873015873015873  0.0158730158730160  0.1904761904761908
  0.6031746031746030  0.0317460317460316  0.2380952380952377
  0.5714285714285714  0.0000000000000000  0.2857142857142857
  0.5873015873015873  0.0158730158730160  0.3333333333333337
  0.6031746031746030  0.0317460317460316  0.3809523809523806
  0.5714285714285714  0.0000000000000000  0.4285714285714286
  0.5873015873015873  0.0158730158730160  0.4761904761904766
  0.6031746031746030  0.0317460317460316  0.5238095238095235
  0.5714285714285714  0.0000000000000000  0.5714285714285714
  0.5714285714285714  0.0000000000000000  0.1428571428571428
  0.5238095238095238  0.9523809523809523  0.5714285714285714
  0.5555555555555554  0.9841269841269841  0.5238095238095235
  0.5396825396825398  0.9682539682539683  0.4761904761904766
  0.5396825396825397  0.9206349206349207  0.4761904761904766
  0.5555555555555552  0.9365079365079364  0.5238095238095235
  0.5238095238095237  0.9047619047619048  0.5714285714285714
  0.5396825396825397  0.9206349206349207  0.6190476190476195
  0.5555555555555554  0.9365079365079363  0.6666666666666664
  0.5238095238095237  0.9047619047619048  0.7142857142857143
  0.5396825396825397  0.9206349206349207  0.7619047619047623
  0.5555555555555552  0.9365079365079364  0.8095238095238092
  0.5238095238095237  0.9047619047619048  0.8571428571428572
  0.5396825396825397  0.9206349206349207  0.9047619047619050
  0.5555555555555554  0.9365079365079363  0.9523809523809520
  0.5238095238095238  0.9523809523809523  0.0000000000000000
  0.5396825396825398  0.9682539682539683  0.0476190476190480
  0.5555555555555555  0.9841269841269839  0.0952380952380949
  0.5238095238095238  0.9523809523809523  0.1428571428571428
  0.5396825396825398  0.9682539682539685  0.1904761904761909
  0.5555555555555554  0.9841269841269841  0.2380952380952377
  0.5238095238095238  0.9523809523809523  0.2857142857142857
  0.5396825396825398  0.9682539682539683  0.3333333333333337
  0.5555555555555555  0.9841269841269839  0.3809523809523806
  0.5238095238095238  0.9523809523809523  0.4285714285714286
  0.5238095238095238  0.3809523809523809  0.0000000000000000
  0.5555555555555555  0.3650793650793649  0.9523809523809520
  0.5396825396825398  0.3492063492063493  0.9047619047619050
  0.5238095238095238  0.3333333333333333  0.8571428571428570
  0.4761904761904762  0.7619047619047619  0.4285714285714286
  0.4920634920634921  0.7777777777777778  0.4761904761904766
  0.5079365079365078  0.7936507936507935  0.5238095238095235
  0.4761904761904762  0.7619047619047619  0.5714285714285714
  0.4920634920634921  0.7777777777777778  0.6190476190476195
  0.5079365079365078  0.7936507936507935  0.6666666666666664
  0.4761904761904762  0.7619047619047619  0.7142857142857143
  0.4920634920634921  0.7777777777777779  0.7619047619047623
  0.5079365079365078  0.7936507936507936  0.8095238095238092
  0.5079365079365078  0.7936507936507935  0.3809523809523806
  0.4761904761904762  0.7619047619047619  0.8571428571428572
  0.5079365079365078  0.7936507936507936  0.9523809523809520
  0.4761904761904762  0.8095238095238095  0.0000000000000000
  0.4920634920634921  0.8253968253968255  0.0476190476190480
  0.5079365079365078  0.8412698412698411  0.0952380952380949
  0.4761904761904762  0.8095238095238095  0.1428571428571428
  0.4920634920634921  0.8253968253968255  0.1904761904761908
  0.5079365079365078  0.8412698412698412  0.2380952380952377
  0.4761904761904762  0.8095238095238095  0.2857142857142857
  0.4920634920634921  0.8253968253968255  0.3333333333333338
  0.4920634920634921  0.7777777777777779  0.9047619047619050
  0.5079365079365078  0.8412698412698411  0.3809523809523807
  0.4920634920634921  0.7777777777777778  0.3333333333333337
  0.5079365079365078  0.7936507936507935  0.2380952380952377
  0.4761904761904761  0.7142857142857143  0.2857142857142857
  0.4920634920634920  0.7301587301587302  0.3333333333333337
  0.5079365079365077  0.7460317460317458  0.3809523809523807
  0.4761904761904761  0.7142857142857143  0.4285714285714285
  0.4920634920634920  0.7301587301587302  0.4761904761904766
  0.5079365079365077  0.7460317460317458  0.5238095238095234
  0.4761904761904761  0.7142857142857143  0.5714285714285714
  0.4920634920634920  0.7301587301587302  0.6190476190476195
  0.5079365079365077  0.7460317460317458  0.6666666666666664
  0.4761904761904762  0.7619047619047619  0.2857142857142857
  0.4761904761904761  0.7142857142857143  0.7142857142857143
  0.5079365079365076  0.7460317460317459  0.8095238095238092
  0.4761904761904761  0.7142857142857143  0.8571428571428572
  0.4920634920634920  0.7301587301587303  0.9047619047619051
  0.5079365079365076  0.7460317460317459  0.9523809523809521
  0.4761904761904762  0.7619047619047619  0.0000000000000000
  0.4920634920634921  0.7777777777777778  0.0476190476190480
  0.5079365079365078  0.7936507936507936  0.0952380952380949
  0.4761904761904762  0.7619047619047619  0.1428571428571428
  0.4920634920634921  0.7777777777777778  0.1904761904761908
  0.4920634920634920  0.7301587301587303  0.7619047619047623
  0.5079365079365077  0.7460317460317458  0.2380952380952378
  0.4761904761904762  0.8095238095238095  0.4285714285714286
  0.5079365079365078  0.8412698412698412  0.5238095238095235
  0.4761904761904762  0.8571428571428571  0.7142857142857143
  0.4920634920634921  0.8730158730158730  0.7619047619047623
  0.5079365079365077  0.8888888888888888  0.8095238095238093
  0.4761904761904762  0.8571428571428571  0.8571428571428572
  0.4920634920634921  0.8730158730158730  0.9047619047619051
  0.5079365079365078  0.8888888888888886  0.9523809523809521
  0.4761904761904762  0.9047619047619048  0.0000000000000000
  0.4920634920634921  0.9206349206349207  0.0476190476190480
  0.5079365079365078  0.9365079365079363  0.0952380952380949
  0.5079365079365078  0.8888888888888886  0.6666666666666664
  0.4761904761904762  0.9047619047619048  0.1428571428571428
  0.5079365079365077  0.9365079365079364  0.2380952380952378
  0.4761904761904762  0.9047619047619048  0.2857142857142857
  0.4920634920634921  0.9206349206349207  0.3333333333333337
  0.5079365079365078  0.9365079365079363  0.3809523809523807
  0.4761904761904762  0.9047619047619048  0.4285714285714286
  0.4920634920634921  0.9206349206349207  0.4761904761904766
  0.5079365079365077  0.9365079365079364  0.5238095238095235
  0.4761904761904762  0.9047619047619048  0.5714285714285714
  0.4920634920634921  0.9206349206349207  0.6190476190476195
  0.4920634920634920  0.9206349206349209  0.1904761904761908
  0.4920634920634921  0.8253968253968255  0.4761904761904766
  0.4920634920634921  0.8730158730158730  0.6190476190476195
  0.5079365079365077  0.8888888888888888  0.5238095238095235
  0.4761904761904762  0.8095238095238095  0.5714285714285714
  0.4920634920634921  0.8253968253968255  0.6190476190476194
  0.5079365079365078  0.8412698412698411  0.6666666666666664
  0.4761904761904762  0.8095238095238095  0.7142857142857144
  0.4920634920634921  0.8253968253968256  0.7619047619047623
  0.5079365079365078  0.8412698412698412  0.8095238095238093
  0.4761904761904762  0.8095238095238095  0.8571428571428572
  0.4920634920634921  0.8253968253968256  0.9047619047619051
  0.5079365079365078  0.8412698412698412  0.9523809523809520
  0.4761904761904762  0.8571428571428571  0.5714285714285714
  0.4761904761904762  0.8571428571428571  0.0000000000000000
  0.5079365079365078  0.8888888888888886  0.0952380952380949
  0.4761904761904762  0.8571428571428571  0.1428571428571428
  0.4920634920634920  0.8730158730158732  0.1904761904761908
  0.5079365079365077  0.8888888888888888  0.2380952380952377
  0.4761904761904762  0.8571428571428571  0.2857142857142857
  0.4920634920634921  0.8730158730158730  0.3333333333333337
  0.5079365079365078  0.8888888888888886  0.3809523809523807
  0.4761904761904762  0.8571428571428571  0.4285714285714285
  0.4920634920634921  0.8730158730158730  0.4761904761904766
  0.4920634920634921  0.8730158730158730  0.0476190476190480
  0.4920634920634920  0.7301587301587302  0.1904761904761909
  0.4761904761904761  0.7142857142857143  0.1428571428571428
  0.5079365079365076  0.7460317460317459  0.0952380952380949
  0.5079365079365078  0.5555555555555555  0.8095238095238093
  0.4761904761904762  0.5238095238095238  0.8571428571428572
  0.4920634920634921  0.5396825396825399  0.9047619047619051
  0.5079365079365078  0.5555555555555555  0.9523809523809520
  0.4761904761904762  0.5714285714285714 -0.0000000000000000