GeTe_conv                               
   1.00000000000000     
     4.2257377988770530    0.0000000000000000    0.0000000000000000
     2.1128688994385265    3.6595962835715028    0.0000000000000093
     0.0000000000000000    0.0000000000000789   11.0292280368054936
   Ge   Te
     3     3
Direct
  0.0000000000000000  0.0000000000000000  0.0000000000000000
  0.3333333333333357  0.3333333333333357  0.3333333333333357
  0.6666666666666643  0.6666666666666643  0.6666666666666643
  0.0000000000000000  0.0000000000000000  0.4668048562178055
  0.3333333333333357  0.3333333333333357  0.8001381692170578
  0.6666666666666643  0.6666666666666643  0.1334715282177838

