supercell-24x24x6
1.0
      103.5010223389         0.0000000000         0.0000000000
        0.0000000000        89.6345146631         0.0000000000
        0.0000000000         0.0000000000       104.9254684448
   Ge   Sb   Te
 6912 6912 17280
Cartesian
     2.295201540         1.325135231         1.732092857
    47.573581696        47.385402679        50.727287292
    45.420623779        46.142391205        36.707248688
    82.073928833        17.507230759       103.190017700
    79.920967102        16.264221191        89.169982910
    62.670799255         1.325135231        89.169982910
   116.577583313        42.407619476        89.169982910
   118.730537415        43.650630951       103.190017700
    45.417312622         6.302917004        50.727287292
    47.573581696        47.385402679        33.239707947
    45.420623779        46.142391205        19.219671249
    64.823753357         2.568145275       103.190017700
   131.668167114        88.467887878        33.239707947
   129.515213013        87.224876404        19.219671249
    43.264354706         5.059906483        54.194828033
    47.573581696        47.385402679        15.752129555
    45.420623779        46.142391205         1.732092857
    45.417312622         6.302917004        68.214859009
   118.733848572        46.142391205         1.732092857
   120.886802673        47.385402679        15.752129555
    45.417312622        43.650630951       103.190017700
    43.264354706        42.407619476        89.169982910
    43.264354706         5.059906483        71.682403564
    45.417312622         6.302917004        85.702438354
    64.827072144         5.059906483         1.732092857
   131.668167114        88.467887878        15.752129555
    45.417312622        43.650630951        85.702438354
    43.264354706        42.407619476        71.682403564
    43.264354706         5.059906483        36.707248688
    66.980026245         6.302917004        15.752129555
    86.389778137        57.346706390        19.219671249
   118.730537415        43.650630951        85.702438354
   129.515213013        87.224876404        54.194828033
   116.577583313        42.407619476        36.707248688
   118.730537415        43.650630951        50.727287292
    41.108085632         1.325135231        89.169982910
    43.261039734         2.568145275       103.190017700
    49.729854584        51.120174408        15.752129555
    47.576896667        49.877162933         1.732092857
    82.077239990        19.998992920         1.732092857
   120.890121460        87.224876404        54.194828033
   123.043083191        88.467887878        68.214859009
    43.264354706         5.059906483         1.732092857
    45.417312622         6.302917004        15.752129555
    47.573581696        47.385402679       103.190017700
    45.420623779        46.142391205        89.169982910
   116.577583313        42.407619476        54.194828033
   118.730537415        43.650630951        68.214859009
    62.670799255         1.325135231        71.682403564
   131.668167114        88.467887878        50.727287292
   129.515213013        87.224876404        36.707248688
    47.573581696        47.385402679        85.702438354
    45.420623779        46.142391205        71.682403564
    64.823753357         2.568145275        85.702438354
    43.264354706         5.059906483        19.219671249
    45.417312622         6.302917004        33.239707947
   116.577583313        42.407619476        71.682403564
    47.573581696        47.385402679        68.214859009
    45.420623779        46.142391205        54.194828033
    88.542739868        58.589717865        33.239707947
   118.733848572        46.142391205        19.219671249
   120.886802673        47.385402679        33.239707947
   129.515213013        87.224876404         1.732092857
   129.511886597        84.733116150        85.702438354
   127.358932495        83.490104675        71.682403564
    43.261039734        39.915859222        85.702438354
    41.108085632        38.672847748        71.682403564
    45.420627594         8.794678688        36.707248688
    47.573581696        10.037688255        50.727287292
    64.827072144         5.059906483        36.707248688
    66.980026245         6.302917004        50.727287292
    86.386466980        54.854942322       103.190017700
    43.261039734        39.915859222        68.214859009
    41.108085632        38.672847748        54.194828033
    84.233512878        53.611938477        89.169982910
   118.733848572        46.142391205        89.169982910
   120.886802673        47.385402679       103.190017700
    45.420627594         8.794678688        54.194828033
    47.573581696        10.037688255        68.214859009
    43.261039734        39.915859222        50.727287292
    41.108085632        38.672847748        36.707248688
    82.073928833        17.507230759        68.214859009
    79.920967102        16.264221191        54.194828033
   129.511886597        84.733116150        68.214859009
   127.358932495        83.490104675        54.194828033
    43.261039734        39.915859222        33.239707947
    41.108085632        38.672847748        19.219671249
    45.420627594         8.794678688        71.682403564
   120.890121460        49.877162933         1.732092857
   123.043075562        51.120174408        15.752129555
   120.886802673        47.385402679        85.702438354
   118.733848572        46.142391205        71.682403564
    41.108085632        38.672847748        89.169982910
    43.261039734        39.915859222       103.190017700
    88.542739868        58.589717865        15.752129555
    86.389778137        57.346706390         1.732092857
    45.417312622        43.650630951        68.214859009
    43.264354706        42.407619476        54.194828033
    43.264354706         5.059906483        89.169982910
    45.417312622         6.302917004       103.190017700
    82.073928833        17.507230759        85.702438354
    45.417312622        43.650630951        50.727287292
    43.264354706        42.407619476        36.707248688
   118.733848572        46.142391205        36.707248688
   120.886802673        47.385402679        50.727287292
   129.511886597        84.733116150       103.190017700
    45.420627594         8.794678688         1.732092857
    47.576896667        49.877162933        19.219671249
    79.920967102        16.264221191        71.682403564
    45.417312622        43.650630951        33.239707947
    43.264354706        42.407619476        19.219671249
    64.827072144         5.059906483        19.219671249
    66.980026245         6.302917004        33.239707947
   127.358932495        83.490104675        89.169982910
   118.733848572        46.142391205        54.194828033
   120.890121460        87.224876404        71.682403564
   123.043083191        88.467887878        85.702438354
    45.417312622        43.650630951        15.752129555
    43.264354706        42.407619476         1.732092857
   120.886802673        47.385402679        68.214859009
    45.420627594         8.794678688        19.219671249
    47.573581696        10.037688255        33.239707947
    47.573581696        10.037688255        15.752129555
    47.573581696        10.037688255        85.702438354
    49.729854584        51.120174408        33.239707947
    64.823753357         2.568145275        68.214859009
   114.421310425        38.672847748         1.732092857
    54.042396545        58.589717865        68.214859009
    51.889438629        57.346706390        54.194828033
   116.574264526        39.915859222        15.752129555
   107.952499390        87.224876404        89.169982910
   110.105453491        88.467887878       103.190017700
    86.389785767        87.224876404        54.194828033
    54.042396545        58.589717865        50.727287292
    51.889438629        57.346706390        36.707248688
    88.542739868        88.467887878        68.214859009
   114.421310425        38.672847748        19.219671249
   116.574264526        39.915859222        33.239707947
    54.042396545        58.589717865        33.239707947
    51.889438629        57.346706390        19.219671249
    86.386466980         2.568145275        33.239707947
    84.233512878         1.325135231        19.219671249
    84.230201721        21.242002487        50.727287292
    82.077239990        19.998992920        36.707248688
    88.542739868        58.589717865        85.702438354
    86.389785767        87.224876404        71.682403564
    88.542739868        88.467887878        85.702438354
    54.042396545        58.589717865        15.752129555
    51.889438629        57.346706390         1.732092857
    62.670799255         1.325135231         1.732092857
   114.421310425        38.672847748        36.707248688
   116.574264526        39.915859222        50.727287292
    86.389778137        57.346706390        71.682403564
    88.542739868        88.467887878        50.727287292
    51.886123657        54.854942322       103.190017700
    86.389785767        87.224876404        36.707248688
    51.889438629        57.346706390        71.682403564
    54.045711517        61.081478119        36.707248688
    86.386466980         2.568145275        68.214859009
    86.389785767        87.224876404         1.732092857
    84.230201721        21.242002487        68.214859009
    88.542739868        88.467887878        15.752129555
    56.198669434        62.324489594        33.239707947
    54.045711517        61.081478119        19.219671249
    82.077239990        19.998992920        54.194828033
   112.265037537        34.938079834        71.682403564
   114.417991638        36.181087494        85.702438354
    84.233512878         1.325135231        54.194828033
    88.542739868        58.589717865       103.190017700
    56.198669434        62.324489594        15.752129555
    54.045711517        61.081478119         1.732092857
    86.389778137        57.346706390        89.169982910
   107.952499390        87.224876404        71.682403564
   110.105453491        88.467887878        85.702438354
   120.890121460        87.224876404        19.219671249
    86.389785767        87.224876404        19.219671249
    88.542739868        88.467887878        33.239707947
    54.042396545        58.589717865       103.190017700
    51.889438629        57.346706390        89.169982910
   112.265037537        34.938079834        89.169982910
   114.417991638        36.181087494       103.190017700
   123.043083191        88.467887878        33.239707947
    86.386466980         2.568145275        50.727287292
    54.042396545        58.589717865        85.702438354
    84.233512878         1.325135231        36.707248688
    49.733169556        53.611938477        89.169982910
    86.389785767        87.224876404        89.169982910
    64.823753357         2.568145275        15.752129555
   116.574264526        39.915859222       103.190017700
    41.108085632         1.325135231        36.707248688
    43.261039734         2.568145275        50.727287292
    49.729854584        51.120174408       103.190017700
    47.576896667        49.877162933        89.169982910
    62.670799255         1.325135231        36.707248688
    64.823753357         2.568145275        50.727287292
   116.577583313        42.407619476         1.732092857
   118.730537415        43.650630951        15.752129555
   131.668167114        88.467887878        85.702438354
    49.729854584        51.120174408        85.702438354
    47.576896667        49.877162933        71.682403564
    41.108085632         1.325135231        54.194828033
    43.261039734         2.568145275        68.214859009
   129.515213013        87.224876404        71.682403564
    49.729854584        51.120174408        68.214859009
    47.576896667        49.877162933        54.194828033
    88.542739868        58.589717865        50.727287292
    41.108085632         1.325135231        71.682403564
   116.577583313        42.407619476        19.219671249
   118.730537415        43.650630951        33.239707947
    43.261039734         2.568145275        85.702438354
    49.729854584        51.120174408        50.727287292
    47.576896667        49.877162933        36.707248688
    86.389778137        57.346706390        36.707248688
    84.230201721        21.242002487        15.752129555
    62.670799255         1.325135231        54.194828033
    49.733169556        53.611938477         1.732092857
    51.886123657        54.854942322        15.752129555
   123.043083191        88.467887878        50.727287292
    86.389778137        57.346706390        54.194828033
    88.542739868        88.467887878       103.190017700
    86.386466980         2.568145275        15.752129555
    51.886123657        54.854942322        85.702438354
    49.733169556        53.611938477        71.682403564
    84.233512878         1.325135231         1.732092857
   114.421310425        38.672847748        54.194828033
   116.574264526        39.915859222        68.214859009
   120.890121460        87.224876404        36.707248688
    41.108085632         1.325135231         1.732092857
    43.261039734         2.568145275        15.752129555
    51.886123657        54.854942322        68.214859009
    49.733169556        53.611938477        54.194828033
    62.670799255         1.325135231        19.219671249
   131.668167114        88.467887878        68.214859009
    64.823753357         2.568145275        33.239707947
    51.886123657        54.854942322        50.727287292
    49.733169556        53.611938477        36.707248688
   114.421310425        38.672847748        71.682403564
   116.574264526        39.915859222        85.702438354
    41.108085632         1.325135231        19.219671249
    43.261039734         2.568145275        33.239707947
    51.886123657        54.854942322        33.239707947
    49.733169556        53.611938477        19.219671249
   131.668167114        88.467887878       103.190017700
    84.230201721        21.242002487        33.239707947
    82.077239990        19.998992920        19.219671249
   129.515213013        87.224876404        89.169982910
   114.421310425        38.672847748        89.169982910
    88.542739868        58.589717865        68.214859009
    56.198669434        62.324489594        50.727287292
    43.261039734        39.915859222        15.752129555
    64.827072144         5.059906483        54.194828033
    32.482997894        23.733764648         1.732092857
    51.889442444        19.998992920        19.219671249
    54.042396545        21.242002487        33.239707947
   125.202667236        57.346706390        36.707248688
   127.355621338        58.589717865        50.727287292
    32.479682922        21.242002487       103.190017700
    30.326726913        19.998992920        89.169982910
   127.355621338        80.998344421        15.752129555
    66.983337402         8.794678688        89.169982910
    69.136299133        10.037688255       103.190017700
   125.202659607        79.755332947         1.732092857
    51.889442444        19.998992920        36.707248688
    32.479682922        21.242002487        85.702438354
    30.326726913        19.998992920        71.682403564
    54.042396545        21.242002487        50.727287292
   125.202667236        57.346706390        54.194828033
   127.355621338        58.589717865        68.214859009
    32.479682922        21.242002487        68.214859009
    30.326726913        19.998992920        54.194828033
    84.230194092        51.120174408       103.190017700
    51.889442444        19.998992920        54.194828033
    79.917655945        13.772459030        85.702438354
    77.764694214        12.529448509        71.682403564
    54.042396545        21.242002487        68.214859009
    32.479682922        21.242002487        50.727287292
    30.326726913        19.998992920        36.707248688
   125.202667236        57.346706390        71.682403564
    34.635955811        24.976774216        15.752129555
   127.355621338        58.589717865        85.702438354
    77.761383057         2.568145275        33.239707947
    86.386466980        54.854942322        15.752129555
    51.886123657        17.507230759        85.702438354
    69.136299133        10.037688255        68.214859009
   127.355621338        80.998344421        50.727287292
    34.635955811        24.976774216        85.702438354
    32.482997894        23.733764648        71.682403564
   125.202659607        79.755332947        36.707248688
    75.608428955         1.325135231        19.219671249
    49.733169556        16.264221191        89.169982910
    51.886123657        17.507230759       103.190017700
   125.202667236        57.346706390         1.732092857
    34.635955811        24.976774216        68.214859009
    32.482997894        23.733764648        54.194828033
   127.355621338        58.589717865        15.752129555
    79.917655945        13.772459030       103.190017700
    77.764694214        12.529448509        89.169982910
    34.635955811        24.976774216        50.727287292
    32.482997894        23.733764648        36.707248688
   127.355621338        80.998344421        33.239707947
    66.983337402         8.794678688        71.682403564
    69.136299133        10.037688255        85.702438354
   125.202667236        57.346706390        19.219671249
   127.355621338        58.589717865        33.239707947
    51.889442444        19.998992920         1.732092857
    54.042396545        21.242002487        15.752129555
    34.635955811        24.976774216        33.239707947
    32.482997894        23.733764648        19.219671249
   125.202659607        79.755332947        19.219671249
    84.233512878        53.611938477         1.732092857
   125.199348450        77.263572693       103.190017700
   123.046394348        76.020568848        89.169982910
    82.077239990        49.877162933        89.169982910
    82.077239990        49.877162933        71.682403564
    30.323413849        17.507230759        50.727287292
    28.170455933        16.264221191        36.707248688
    54.045711517        23.733764648        19.219671249
    77.764694214        12.529448509        54.194828033
    56.198665619        24.976774216        33.239707947
   125.199348450        77.263572693        68.214859009
   123.046394348        76.020568848        54.194828033
    30.323413849        17.507230759        33.239707947
    28.170455933        16.264221191        19.219671249
    69.139610291        12.529448509        36.707248688
   127.358940125        61.081478119        36.707248688
   129.511886597        62.324489594        50.727287292
    54.045711517        23.733764648        36.707248688
    56.198665619        24.976774216        50.727287292
    30.323413849        17.507230759        15.752129555
    28.170455933        16.264221191         1.732092857
    71.292564392        13.772459030        50.727287292
   125.199348450        77.263572693        50.727287292
    54.045711517        23.733764648        54.194828033
    28.167140961        13.772459030       103.190017700
    26.014184952        12.529448509        89.169982910
   127.358940125        61.081478119        54.194828033
   129.511886597        62.324489594        68.214859009
    56.198665619        24.976774216        68.214859009
   123.046394348        76.020568848        36.707248688
    28.167140961        13.772459030        85.702438354
   129.511886597        62.324489594        33.239707947
   127.358940125        61.081478119        19.219671249
    79.917655945        13.772459030        68.214859009
    84.230194092        51.120174408        85.702438354
    32.479682922        21.242002487        33.239707947
    30.326726913        19.998992920        19.219671249
    69.139610291        12.529448509         1.732092857
    71.292564392        13.772459030        15.752129555
    51.889442444        19.998992920        71.682403564
    54.042396545        21.242002487        85.702438354
   125.202667236        57.346706390        89.169982910
    32.479682922        21.242002487        15.752129555
    30.326726913        19.998992920         1.732092857
   127.355621338        58.589717865       103.190017700
    75.608428955         1.325135231        36.707248688
    51.889442444        19.998992920        89.169982910
    54.042396545        21.242002487       103.190017700
   125.199348450        54.854942322       103.190017700
    30.323413849        17.507230759       103.190017700
   125.199348450        77.263572693        85.702438354
   123.046394348        76.020568848        71.682403564
   127.358940125        61.081478119         1.732092857
   129.511886597        62.324489594        15.752129555
    77.761383057         2.568145275        50.727287292
    30.323413849        17.507230759        85.702438354
    28.170455933        16.264221191        71.682403564
    54.045711517        23.733764648         1.732092857
    56.198665619        24.976774216        15.752129555
    69.139610291        12.529448509        19.219671249
    71.292564392        13.772459030        33.239707947
    30.323413849        17.507230759        68.214859009
    28.170455933        16.264221191        54.194828033
    28.170455933        16.264221191        89.169982910
    41.108085632        38.672847748         1.732092857
   123.046394348        53.611938477        89.169982910
    34.635955811        24.976774216       103.190017700
    41.104770660        36.181087494        33.239707947
    38.951812744        34.938079834        19.219671249
   129.511886597        84.733116150        33.239707947
   127.358932495        83.490104675        19.219671249
    47.576896667        12.529448509        36.707248688
    41.104770660        36.181087494        15.752129555
    38.951812744        34.938079834         1.732092857
    64.827072144         5.059906483        89.169982910
    66.980026245         6.302917004       103.190017700
   120.890121460        49.877162933        71.682403564
   123.043075562        51.120174408        85.702438354
    49.729854584        13.772459030        50.727287292
    38.948497772        32.446315765       103.190017700
    36.795539856        31.203306198        89.169982910
    86.386466980        54.854942322        68.214859009
    84.233512878        53.611938477        54.194828033
   129.511886597        84.733116150        15.752129555
    47.576896667        12.529448509        54.194828033
    49.729854584        13.772459030        68.214859009
    38.948497772        32.446315765        85.702438354
    36.795539856        31.203306198        71.682403564
   120.890121460        49.877162933        89.169982910
   123.043075562        51.120174408       103.190017700
   127.358932495        83.490104675         1.732092857
    47.576896667        12.529448509        71.682403564
    49.729854584        13.772459030        85.702438354
    38.948497772        32.446315765        68.214859009
    49.729854584        13.772459030        33.239707947
    36.795539856        31.203306198        54.194828033
   123.043075562        51.120174408        68.214859009
    79.920967102        16.264221191        36.707248688
    66.980026245         6.302917004        68.214859009
    86.386466980        54.854942322        85.702438354
    45.420627594         8.794678688        89.169982910
    47.573581696        10.037688255       103.190017700
    41.104770660        36.181087494       103.190017700
    38.951812744        34.938079834        89.169982910
   120.890121460        49.877162933        19.219671249
   123.043075562        51.120174408        33.239707947
   129.511886597        84.733116150        50.727287292
   127.358932495        83.490104675        36.707248688
    41.104770660        36.181087494        85.702438354
    38.951812744        34.938079834        71.682403564
    84.233512878        53.611938477        71.682403564
    47.576896667        12.529448509         1.732092857
    49.729854584        13.772459030        15.752129555
    64.827072144         5.059906483        71.682403564
   120.890121460        49.877162933        36.707248688
    41.104770660        36.181087494        68.214859009
    38.951812744        34.938079834        54.194828033
   123.043075562        51.120174408        50.727287292
   120.890121460        87.224876404        89.169982910
   123.043083191        88.467887878       103.190017700
    66.980026245         6.302917004        85.702438354
    41.104770660        36.181087494        50.727287292
    38.951812744        34.938079834        36.707248688
    47.576896667        12.529448509        19.219671249
    82.073928833        17.507230759        50.727287292
   120.890121460        49.877162933        54.194828033
    82.073928833        17.507230759        33.239707947
    66.983337402         8.794678688         1.732092857
    69.136299133        10.037688255        15.752129555
    51.886123657        17.507230759        33.239707947
    36.792224884        28.711544037        68.214859009
    34.639270782        27.468534470        54.194828033
    82.073928833        17.507230759        15.752129555
    79.920967102        16.264221191         1.732092857
   123.046394348        53.611938477        54.194828033
   125.199348450        54.854942322        68.214859009
    49.733169556        16.264221191        36.707248688
    36.792224884        28.711544037        50.727287292
    34.639270782        27.468534470        36.707248688
    51.886123657        17.507230759        50.727287292
    66.983337402         8.794678688        36.707248688
    69.136299133        10.037688255        50.727287292
   127.355621338        80.998344421        68.214859009
    36.792224884        28.711544037        33.239707947
    34.639270782        27.468534470        19.219671249
   125.202659607        79.755332947        54.194828033
   123.046394348        53.611938477        71.682403564
   125.199348450        54.854942322        85.702438354
    86.386466980        54.854942322        33.239707947
    49.733169556        16.264221191        54.194828033
    51.886123657        17.507230759        68.214859009
    36.792224884        28.711544037        15.752129555
    34.639270782        27.468534470         1.732092857
    84.233512878        53.611938477        19.219671249
    66.983337402         8.794678688        54.194828033
    49.733169556        16.264221191        71.682403564
    49.733169556        16.264221191        19.219671249
    77.761383057         2.568145275        15.752129555
    34.639270782        27.468534470        71.682403564
    36.792224884        28.711544037        85.702438354
    38.948497772        32.446315765        50.727287292
    36.795539856        31.203306198        36.707248688
   123.046394348        53.611938477         1.732092857
   125.199348450        54.854942322        15.752129555
   127.355621338        80.998344421       103.190017700
   125.202659607        79.755332947        89.169982910
    47.576896667        12.529448509        89.169982910
    49.729854584        13.772459030       103.190017700
    38.948497772        32.446315765        33.239707947
    36.795539856        31.203306198        19.219671249
    79.920967102        16.264221191        19.219671249
   123.046394348        53.611938477        19.219671249
    86.386466980        54.854942322        50.727287292
    32.482997894        23.733764648        89.169982910
    84.233512878        53.611938477        36.707248688
    36.795539856        31.203306198         1.732092857
   125.199348450        54.854942322        33.239707947
    75.608428955         1.325135231         1.732092857
    49.733169556        16.264221191         1.732092857
    51.886123657        17.507230759        15.752129555
    66.983337402         8.794678688        19.219671249
    36.792224884        28.711544037       103.190017700
    34.639270782        27.468534470        89.169982910
    69.136299133        10.037688255        33.239707947
   123.046394348        53.611938477        36.707248688
   125.199348450        54.854942322        50.727287292
   127.355621338        80.998344421        85.702438354
   125.202659607        79.755332947        71.682403564
    38.948497772        32.446315765        15.752129555
   114.417991638        36.181087494        68.214859009
   112.265037537        34.938079834        54.194828033
    86.386474609        84.733116150       103.190017700
   101.483680725        16.264221191        71.682403564
   103.636634827        17.507230759        85.702438354
    92.855278015        13.772459030        68.214859009
    90.702323914        12.529448509        54.194828033
    28.167140961         6.302917004        15.752129555
    26.014186859         5.059906483         1.732092857
    73.452156067        64.816253662        71.682403564
    75.605110168        66.059257507        85.702438354
    88.542739868        28.711544037        15.752129555
    86.389778137        27.468534470         1.732092857
    26.010869980         2.568145275       103.190017700
    23.857915878         1.325135231        89.169982910
   101.483680725        16.264221191        89.169982910
   103.636634827        17.507230759       103.190017700
    92.855278015        66.059257507        68.214859009
    90.702323914        64.816253662        54.194828033
    73.452156067        64.816253662        89.169982910
    75.605110168        66.059257507       103.190017700
    26.010869980         2.568145275        85.702438354
    23.857915878         1.325135231        71.682403564