supercell-16x16x4
1.0
       69.0006866455         0.0000000000         0.0000000000
        0.0000000000        59.7563498106         0.0000000000
        0.0000000000         0.0000000000        69.9503097534
   Ge   Sb   Te
 2048 2048 5120
Cartesian
     2.295201778         1.325135469         1.732092857
    64.823760986        10.037689209        15.752128601
    62.670803070         8.794679642         1.732092857
    28.170459747         8.794679642        54.194824219
    30.323413849        10.037689209        68.214859009
    30.326730728        12.529451370         1.732092857
    32.479686737        13.772460938        15.752128601
    62.667491913         6.302917480        68.214859009
    60.514530182         5.059907436        54.194824219
    30.326730728        12.529451370        19.219671249
    32.479686737        13.772460938        33.239704132
    30.326730728        12.529451370        36.707244873
    32.479686737        13.772460938        50.727283478
    62.667491913         6.302917480        50.727283478
    60.514530182         5.059907436        36.707244873
    30.326730728        12.529451370        54.194824219
    32.479686737        13.772460938        68.214859009
    62.667491913         6.302917480        33.239704132
    32.483001709        16.264223099         1.732092857
    34.635955811        17.507232666        15.752128601
    30.323413849        10.037689209        50.727283478
    28.170459747         8.794679642        36.707244873
    30.323413849        10.037689209        33.239704132
    54.045719147        16.264223099        36.707244873
    23.857917786         1.325135469        54.194824219
    26.010871887         2.568145752        68.214859009
    66.980033875        13.772460938        15.752128601
    64.827072144        12.529451370         1.732092857
    26.014188766         5.059907436         1.732092857
    28.167142868         6.302917480        15.752128601
    26.014188766         5.059907436        19.219671249
    28.167142868         6.302917480        33.239704132
    64.823760986        10.037689209        68.214859009
    60.514530182         5.059907436        19.219671249
    62.670803070         8.794679642        54.194824219
    28.167142868         6.302917480        50.727283478
    64.823760986        10.037689209        50.727283478
    26.014188766         5.059907436        54.194824219
    28.167142868         6.302917480        68.214859009
    62.670803070         8.794679642        36.707244873
    28.170459747         8.794679642         1.732092857
    30.323413849        10.037689209        15.752128601
    64.823760986        10.037689209        33.239704132
    62.670803070         8.794679642        19.219671249
    26.014188766         5.059907436        36.707244873
    32.483001709        16.264223099        19.219671249
    34.635955811        17.507232666        33.239704132
    62.667491913         6.302917480        15.752128601
    58.358261108         1.325135469         1.732092857
    36.795543671        23.733766556        36.707244873
    38.948497772        24.976778030        50.727283478
    88.542747498        58.589725494        68.214859009
    86.389785767        57.346717834        54.194824219
    36.795543671        23.733766556        54.194824219
    38.948497772        24.976778030        68.214859009
    38.951816559        27.468538284         1.732092857
    41.104770660        28.711549759        15.752128601
    38.948497772        24.976778030        33.239704132
    88.542747498        58.589725494        50.727283478
    38.951816559        27.468538284        19.219671249
    41.104770660        28.711549759        33.239704132
    38.951816559        27.468538284        36.707244873
    41.104770660        28.711549759        50.727283478
    88.542747498        58.589725494        33.239704132
    86.389785767        57.346717834        19.219671249
    38.951816559        27.468538284        54.194824219
    41.104770660        28.711549759        68.214859009
    41.108089447        31.203311920         1.732092857
    86.389785767        57.346717834        36.707244873
    26.010871887         2.568145752        50.727283478
    36.795543671        23.733766556        19.219671249
    38.948497772        24.976778030        15.752128601
    60.514530182         5.059907436         1.732092857
    32.483001709        16.264223099        36.707244873
    34.635955811        17.507232666        50.727283478
    32.483001709        16.264223099        54.194824219
    34.635955811        17.507232666        68.214859009
    60.511219025         2.568145752        68.214859009
    58.358261108         1.325135469        54.194824219
    34.639274597        19.998994827         1.732092857
    36.792228699        21.242004395        15.752128601
    60.511219025         2.568145752        15.752128601
    34.639274597        19.998994827        19.219671249
    60.511219025         2.568145752        50.727283478
    58.358261108         1.325135469        36.707244873
    34.639274597        19.998994827        36.707244873
    36.792228699        21.242004395        50.727283478
    34.639274597        19.998994827        54.194824219
    36.792228699        21.242004395        68.214859009
    60.511219025         2.568145752        33.239704132
    58.358261108         1.325135469        19.219671249
    36.795543671        23.733766556         1.732092857
    36.792228699        21.242004395        33.239704132
    43.261043549        32.446323395        15.752128601
    23.857917786         1.325135469        36.707244873
    66.980033875        13.772460938        33.239704132
    43.264358521        42.407627106         1.732092857
    45.417312622        43.650638580        15.752128601
    71.295890808        23.733766556        19.219671249
    43.264358521        42.407627106        19.219671249
    45.417312622        43.650638580        33.239704132
    73.448844910        24.976778030        15.752128601
    71.295890808        23.733766556         1.732092857
    43.264358521        42.407627106        36.707244873
    45.417312622        43.650638580        50.727283478
    43.264358521        42.407627106        54.194824219
    45.417312622        43.650638580        68.214859009
    71.292572021        21.242004395        68.214859009
    69.139617920        19.998994827        54.194824219
    45.420627594        46.142398834         1.732092857
    47.573585510        47.385410309        15.752128601
    45.420627594        46.142398834        19.219671249
    47.573585510        47.385410309        33.239704132
    71.292572021        21.242004395        50.727283478
    69.139617920        19.998994827        36.707244873
    73.448844910        24.976778030        33.239704132
    43.261043549        39.915866852        68.214859009
    41.108085632        38.672855377        54.194824219
    71.295890808        23.733766556        36.707244873
    41.104770660        36.181095123        15.752128601
    75.605117798        28.711549759        33.239704132
    73.452156067        27.468538284        19.219671249
    38.951816559        34.938083649        19.219671249
    41.104770660        36.181095123        33.239704132
    38.951816559        34.938083649        36.707244873
    41.104770660        36.181095123        50.727283478
    75.605117798        28.711549759        15.752128601
    73.452156067        27.468538284         1.732092857
    45.420627594        46.142398834        36.707244873
    38.951816559        34.938083649        54.194824219
    41.108085632        38.672855377         1.732092857
    43.261043549        39.915866852        15.752128601
    73.448844910        24.976778030        68.214859009
    71.295890808        23.733766556        54.194824219
    41.108085632        38.672855377        19.219671249
    43.261043549        39.915866852        33.239704132
    41.108085632        38.672855377        36.707244873
    43.261043549        39.915866852        50.727283478
    73.448844910        24.976778030        50.727283478
    41.104770660        36.181095123        68.214859009
    47.573585510        47.385410309        50.727283478
    45.420627594        46.142398834        54.194824219
    47.573585510        47.385410309        68.214859009
    49.733169556        53.611946106        54.194824219
    51.886127472        54.854953766        68.214859009
    51.889442444        57.346717834         1.732092857
    54.042400360        58.589725494        15.752128601
    69.136306763        17.507232666        15.752128601
    66.983345032        16.264223099         1.732092857
    51.889442444        57.346717834        19.219671249
    54.042400360        58.589725494        33.239704132
    66.980033875        13.772460938        68.214859009
    66.983345032        16.264223099        19.219671249
    51.889442444        57.346717834        36.707244873
    64.827072144        12.529451370        54.194824219
    51.889442444        57.346717834        54.194824219
    54.042400360        58.589725494        68.214859009
    66.980033875        13.772460938        50.727283478
    64.827072144        12.529451370        36.707244873
    23.857917786         1.325135469         1.732092857
    26.010871887         2.568145752        15.752128601
    23.857917786         1.325135469        19.219671249
    26.010871887         2.568145752        33.239704132
    54.042400360        58.589725494        50.727283478
    64.827072144        12.529451370        19.219671249
    69.136306763        17.507232666        33.239704132
    49.733169556        53.611946106        36.707244873
    71.292572021        21.242004395        33.239704132
    69.139617920        19.998994827        19.219671249
    47.576900482        49.877174377         1.732092857
    49.729858398        51.120182037        15.752128601
    71.292572021        21.242004395        15.752128601
    47.576900482        49.877174377        19.219671249
    49.729858398        51.120182037        33.239704132
    69.139617920        19.998994827         1.732092857
    47.576900482        49.877174377        36.707244873
    51.886127472        54.854953766        50.727283478
    49.729858398        51.120182037        50.727283478
    66.983345032        16.264223099        54.194824219
    47.576900482        49.877174377        54.194824219
    49.729858398        51.120182037        68.214859009
    49.733169556        53.611946106         1.732092857
    51.886127472        54.854953766        15.752128601
    69.136306763        17.507232666        50.727283478
    66.983345032        16.264223099        36.707244873
    49.733169556        53.611946106        19.219671249
    51.886127472        54.854953766        33.239704132
    69.136306763        17.507232666        68.214859009
    38.951816559        34.938083649         1.732092857
    88.542747498        58.589725494        15.752128601
    41.108089447        31.203311920        19.219671249
    75.605117798        36.181095123        50.727283478
    73.452163696        34.938083649        36.707244873
    32.483001709         8.794679642         1.732092857
    34.635959625        10.037689209        15.752128601
    32.483001709         8.794679642        19.219671249
    34.635959625        10.037689209        33.239704132
    75.605117798        36.181095123        33.239704132
    73.452163696        34.938083649        19.219671249
    32.483001709         8.794679642        36.707244873
    34.635959625        10.037689209        50.727283478
    32.483001709         8.794679642        54.194824219
    34.635959625        10.037689209        68.214859009
    75.605117798        36.181095123        15.752128601
    73.452163696        34.938083649         1.732092857
    34.639270782        12.529451370         1.732092857
    36.792228699        13.772460938        15.752128601
    34.639270782        12.529451370        19.219671249
    36.792228699        13.772460938        33.239704132
    73.448844910        32.446323395        68.214859009
    32.479686737         6.302917480        68.214859009
    30.326730728         5.059907436        54.194824219
    73.452163696        34.938083649        54.194824219
    32.479686737         6.302917480        50.727283478
    28.170459747         1.325135469         1.732092857
    30.323415756         2.568145752        15.752128601
    77.761390686        39.915866852        50.727283478
    75.608428955        38.672855377        36.707244873
    28.170459747         1.325135469        19.219671249
    30.323415756         2.568145752        33.239704132
    28.170459747         1.325135469        36.707244873
    30.323415756         2.568145752        50.727283478
    77.761390686        39.915866852        33.239704132
    71.295890808        31.203311920        54.194824219
    75.608428955        38.672855377        19.219671249
    30.323415756         2.568145752        68.214859009
    30.326730728         5.059907436         1.732092857
    32.479686737         6.302917480        15.752128601
    77.761390686        39.915866852        15.752128601
    75.608428955        38.672855377         1.732092857
    30.326730728         5.059907436        19.219671249
    32.479686737         6.302917480        33.239704132
    75.605117798        36.181095123        68.214859009
    30.326730728         5.059907436        36.707244873
    28.170459747         1.325135469        54.194824219
    34.639270782        12.529451370        36.707244873
    36.792228699        13.772460938        50.727283478
    73.448844910        32.446323395        50.727283478
    69.139617920        27.468538284        36.707244873
    38.951816559        19.998994827        54.194824219
    41.104770660        21.242004395        68.214859009
    71.292572021        28.711549759        33.239704132
    41.108085632        23.733766556         1.732092857
    43.261043549        24.976778030        15.752128601
    69.139617920        27.468538284        19.219671249
    41.108085632        23.733766556        19.219671249
    43.261043549        24.976778030        33.239704132
    71.292572021        28.711549759        50.727283478
    71.292572021        28.711549759        15.752128601
    41.108085632        23.733766556        36.707244873
    43.261043549        24.976778030        50.727283478
    41.108085632        23.733766556        54.194824219
    43.261043549        24.976778030        68.214859009
    69.136306763        24.976778030        68.214859009
    66.983345032        23.733766556        54.194824219
    43.264358521        27.468538284         1.732092857
    45.417312622        28.711549759        15.752128601
    43.264358521        27.468538284        19.219671249
    69.139617920        27.468538284         1.732092857
    58.354942322        58.589725494        68.214859009
    41.104770660        21.242004395        50.727283478
    41.104770660        21.242004395        33.239704132
    34.639270782        12.529451370        54.194824219
    36.792228699        13.772460938        68.214859009
    71.295890808        31.203311920        36.707244873
    36.795543671        16.264223099         1.732092857
    38.948501587        17.507232666        15.752128601
    73.448844910        32.446323395        33.239704132
    71.295890808        31.203311920        19.219671249
    36.795543671        16.264223099        19.219671249
    38.948501587        17.507232666        33.239704132
    38.951816559        19.998994827        36.707244873
    36.795543671        16.264223099        36.707244873
    73.448844910        32.446323395        15.752128601
    71.295890808        31.203311920         1.732092857
    36.795543671        16.264223099        54.194824219
    38.948501587        17.507232666        68.214859009
    38.951816559        19.998994827         1.732092857
    41.104770660        21.242004395        15.752128601
    71.292572021        28.711549759        68.214859009
    69.139617920        27.468538284        54.194824219
    38.951816559        19.998994827        19.219671249
    38.948501587        17.507232666        50.727283478
    86.389785767        57.346717834         1.732092857
    56.201984406        57.346717834        54.194824219
    77.761390686        39.915866852        68.214859009
    47.573585510        39.915866852        33.239704132
    84.230201721        51.120182037        68.214859009
    82.077247620        49.877174377        54.194824219
    45.420631409        38.672855377        36.707244873
    47.573585510        39.915866852        50.727283478
    84.230201721        51.120182037        50.727283478
    45.420631409        38.672855377        54.194824219
    47.573585510        39.915866852        68.214859009
    82.077247620        49.877174377        36.707244873
    47.576900482        42.407627106         1.732092857
    49.729854584        43.650638580        15.752128601
    84.230201721        51.120182037        33.239704132
    82.077247620        49.877174377        19.219671249
    47.576900482        42.407627106        19.219671249
    49.729854584        43.650638580        33.239704132
    47.576900482        42.407627106        36.707244873
    49.729854584        43.650638580        50.727283478
    84.230201721        51.120182037        15.752128601
    82.077247620        49.877174377         1.732092857
    45.420631409        38.672855377        19.219671249
    47.573585510        39.915866852        15.752128601
    45.420631409        38.672855377         1.732092857
    84.233512878        53.611946106         1.732092857
    43.261043549        32.446323395        33.239704132
    86.386474609        54.854953766        68.214859009
    41.108089447        31.203311920        36.707244873
    43.261043549        32.446323395        50.727283478
    84.233512878        53.611946106        54.194824219
    41.108089447        31.203311920        54.194824219
    43.261043549        32.446323395        68.214859009
    86.386474609        54.854953766        50.727283478
    84.233512878        53.611946106        36.707244873
    47.576900482        42.407627106        54.194824219
    43.264358521        34.938083649         1.732092857
    43.264358521        34.938083649        19.219671249
    45.417312622        36.181095123        33.239704132
    86.386474609        54.854953766        33.239704132
    84.233512878        53.611946106        19.219671249
    43.264358521        34.938083649        36.707244873
    45.417312622        36.181095123        50.727283478
    43.264358521        34.938083649        54.194824219
    45.417312622        36.181095123        68.214859009
    86.386474609        54.854953766        15.752128601
    45.417312622        36.181095123        15.752128601
    49.729854584        43.650638580        68.214859009
    49.733173370        46.142398834         1.732092857
    51.886127472        47.385410309        15.752128601
    54.045715332        53.611946106         1.732092857
    56.198669434        54.854953766        15.752128601
    54.045715332        53.611946106        19.219671249
    56.198669434        54.854953766        33.239704132
    79.917663574        43.650638580        50.727283478
    77.764701843        42.407627106        36.707244873
    54.045715332        53.611946106        36.707244873
    56.198669434        54.854953766        50.727283478
    54.045715332        53.611946106        54.194824219
    77.764701843        42.407627106        54.194824219
    56.198669434        54.854953766        68.214859009
    77.764701843        42.407627106        19.219671249
    56.201984406        57.346717834         1.732092857
    58.354942322        58.589725494        15.752128601
    79.917663574        43.650638580        15.752128601
    56.201984406        57.346717834        19.219671249
    58.354942322        58.589725494        33.239704132
    77.764701843        42.407627106         1.732092857
    56.201984406        57.346717834        36.707244873
    58.354942322        58.589725494        50.727283478
    79.917663574        43.650638580        33.239704132
    75.608428955        38.672855377        54.194824219
    79.917663574        43.650638580        68.214859009
    51.889442444        49.877174377        54.194824219
    82.073928833        47.385410309        68.214859009
    79.920974731        46.142398834        54.194824219
    49.733173370        46.142398834        19.219671249
    51.886127472        47.385410309        33.239704132
    49.733173370        46.142398834        36.707244873
    51.886127472        47.385410309        50.727283478
    82.073928833        47.385410309        50.727283478
    79.920974731        46.142398834        36.707244873
    49.733173370        46.142398834        54.194824219
    54.042400360        51.120182037        68.214859009
    51.886127472        47.385410309        68.214859009
    51.889442444        49.877174377         1.732092857
    54.042400360        51.120182037        15.752128601
    79.920974731        46.142398834        19.219671249
    51.889442444        49.877174377        19.219671249
    54.042400360        51.120182037        33.239704132
    82.073928833        47.385410309        15.752128601
    79.920974731        46.142398834         1.732092857
    51.889442444        49.877174377        36.707244873
    54.042400360        51.120182037        50.727283478
    82.073928833        47.385410309        33.239704132
    73.452156067        27.468538284        36.707244873
    38.948501587        32.446323395        68.214859009
    36.795543671        31.203311920        54.194824219
    26.010871887        17.507232666        15.752128601
    71.292572021        13.772460938        15.752128601
    69.139617920        12.529451370         1.732092857
    23.857915878        16.264223099        19.219671249
    26.010871887        17.507232666        33.239704132
    69.136306763        10.037689209        68.214859009
    23.857915878        16.264223099        36.707244873
    26.010871887        17.507232666        50.727283478
    66.983345032         8.794679642        54.194824219
    23.857915878        16.264223099        54.194824219
    26.010871887        17.507232666        68.214859009
    69.136306763        10.037689209        50.727283478
    66.983345032         8.794679642        36.707244873
    26.014186859        19.998994827         1.732092857
    28.167142868        21.242004395        15.752128601
    26.014186859        19.998994827        19.219671249
    28.167142868        21.242004395        33.239704132
    69.136306763        10.037689209        33.239704132
    66.983345032         8.794679642        19.219671249
    23.857915878        16.264223099         1.732092857
    23.854600906        13.772460938        68.214859009
    21.701642990        12.529451370        54.194824219
    69.139617920        12.529451370        19.219671249
    21.698329926        10.037689209        15.752128601
    73.448844910        17.507232666        15.752128601
    19.545372009         8.794679642        19.219671249
    21.698329926        10.037689209        33.239704132
    71.295890808        16.264223099         1.732092857
    19.545372009         8.794679642        36.707244873
    21.698329926        10.037689209        50.727283478
    71.292572021        13.772460938        68.214859009
    69.139617920        12.529451370        54.194824219
    26.014186859        19.998994827        36.707244873
    19.545372009         8.794679642        54.194824219
    21.701642990        12.529451370         1.732092857
    23.854600906        13.772460938        15.752128601
    71.292572021        13.772460938        50.727283478
    69.139617920        12.529451370        36.707244873
    21.701642990        12.529451370        19.219671249
    23.854600906        13.772460938        33.239704132
    21.701642990        12.529451370        36.707244873
    23.854600906        13.772460938        50.727283478
    71.292572021        13.772460938        33.239704132
    21.698329926        10.037689209        68.214859009
    28.167142868        21.242004395        50.727283478
    26.014186859        19.998994827        54.194824219
    28.167142868        21.242004395        68.214859009
    30.326728821        27.468538284        54.194824219
    32.479686737        28.711549759        68.214859009
    32.483001709        31.203311920         1.732092857
    34.635955811        32.446323395        15.752128601
    64.823760986         2.568145752        68.214859009
    62.670806885         1.325135469        54.194824219
    32.483001709        31.203311920        19.219671249
    34.635955811        32.446323395        33.239704132
    32.483001709        31.203311920        36.707244873
    64.827079773         5.059907436         1.732092857
    34.635955811        32.446323395        50.727283478
    62.670806885         1.325135469        36.707244873
    32.483001709        31.203311920        54.194824219
    34.635955811        32.446323395        68.214859009
    64.823760986         2.568145752        33.239704132
    34.639270782        34.938083649         1.732092857
    36.792228699        36.181095123        15.752128601
    62.670806885         1.325135469        19.219671249
    34.639270782        34.938083649        19.219671249
    36.792228699        36.181095123        33.239704132
    64.823760986         2.568145752        50.727283478
    19.545372009         8.794679642         1.732092857
    66.980033875         6.302917480        15.752128601
    30.326728821        27.468538284        36.707244873
    69.136306763        10.037689209        15.752128601
    66.983345032         8.794679642         1.732092857
    28.170457840        23.733766556         1.732092857
    30.323413849        24.976778030        15.752128601
    28.170457840        23.733766556        19.219671249
    30.323413849        24.976778030        33.239704132
    66.980033875         6.302917480        68.214859009
    64.827079773         5.059907436        54.194824219
    28.170457840        23.733766556        36.707244873
    32.479686737        28.711549759        50.727283478
    30.323413849        24.976778030        50.727283478
    28.170457840        23.733766556        54.194824219
    30.323413849        24.976778030        68.214859009
    64.827079773         5.059907436        36.707244873
    30.326728821        27.468538284         1.732092857
    32.479686737        28.711549759        15.752128601
    66.980033875         6.302917480        33.239704132
    64.827079773         5.059907436        19.219671249
    30.326728821        27.468538284        19.219671249
    32.479686737        28.711549759        33.239704132
    66.980033875         6.302917480        50.727283478
    64.823760986         2.568145752        15.752128601
    71.295890808        16.264223099        19.219671249
    19.542058945         6.302917480        68.214859009
    79.917655945        28.711549759        33.239704132
    77.764701843        27.468538284        19.219671249
    36.795543671        46.142398834        36.707244873
    38.948497772        47.385410309        50.727283478
    36.795543671        46.142398834        54.194824219
    38.948497772        47.385410309        68.214859009
    79.917655945        28.711549759        15.752128601
    77.764701843        27.468538284         1.732092857
    38.951812744        49.877174377         1.732092857
    41.104770660        51.120182037        15.752128601
    38.951812744        49.877174377        19.219671249
    41.104770660        51.120182037        33.239704132
    77.761390686        24.976778030        68.214859009
    75.608436584        23.733766556        54.194824219
    38.951812744        49.877174377        36.707244873
    41.104770660        51.120182037        50.727283478
    77.761390686        24.976778030        50.727283478
    38.951812744        49.877174377        54.194824219
    41.104770660        51.120182037        68.214859009
    38.948497772        47.385410309        33.239704132
    36.795543671        46.142398834        19.219671249
    38.948497772        47.385410309        15.752128601
    36.795543671        46.142398834         1.732092857
    32.483001709        38.672855377        36.707244873
    34.635955811        39.915866852        50.727283478
    82.073928833        32.446323395        33.239704132
    79.920974731        31.203311920        19.219671249
    32.483001709        38.672855377        54.194824219
    34.635955811        39.915866852        68.214859009
    34.639270782        42.407627106         1.732092857
    36.792228699        43.650638580        15.752128601
    82.073928833        32.446323395        15.752128601
    75.608436584        23.733766556        36.707244873
    79.920974731        31.203311920         1.732092857
    36.792228699        43.650638580        33.239704132
    79.917655945        28.711549759        68.214859009
    34.639270782        42.407627106        36.707244873
    36.792228699        43.650638580        50.727283478
    77.764701843        27.468538284        54.194824219
    34.639270782        42.407627106        54.194824219
    36.792228699        43.650638580        68.214859009
    79.917655945        28.711549759        50.727283478
    77.764701843        27.468538284        36.707244873
    34.639270782        42.407627106        19.219671249
    41.108085632        53.611946106         1.732092857