GeSbTe (4_kooi)                         
   1.00000000000000     
     4.2338909840079646    0.0000000000000070    0.0000000000000007
     2.1169454920039494    3.6666571490047564   -0.0000000000000000
    -0.0000000000000000   -0.0000000000000008   16.8210805927870446
   Ge   Sb   Te
     2     2     5
Direct
  0.3333333333333357  0.3333333333333357  0.1010716187880527
  0.6666666666666643  0.6666666666666643  0.8989283812119260
 -0.0000000000000000 -0.0000000000000000  0.3188248605586111
  0.0000000000000000 -0.0000000000000000  0.6811751394413462
 -0.0000000000000000  0.0000000000000000 -0.0000000000000000
  0.6666666666666643  0.6666666666666643  0.1999190461073137
  0.3333333333333357  0.3333333333333357  0.4217436906568401
  0.6666666666666643  0.6666666666666643  0.5782563093431101
  0.3333333333333357  0.3333333333333357  0.8000809538926437
 
  0.00000000E+00  0.00000000E+00  0.00000000E+00
  0.00000000E+00  0.00000000E+00  0.00000000E+00
  0.00000000E+00  0.00000000E+00  0.00000000E+00
  0.00000000E+00  0.00000000E+00  0.00000000E+00
  0.00000000E+00  0.00000000E+00  0.00000000E+00
  0.00000000E+00  0.00000000E+00  0.00000000E+00
  0.00000000E+00  0.00000000E+00  0.00000000E+00
  0.00000000E+00  0.00000000E+00  0.00000000E+00
  0.00000000E+00  0.00000000E+00  0.00000000E+00
