# Si 4nd

units			metal
atom_style		atomic
boundary		p p p

#box             tilt large
read_data		structure.in

mass			1 72.64
mass            2 121.76
mass			3 127.60

pair_style		deepmd frozen_model.pb
pair_coeff		* *

velocity		all create 700.0 1031
compute         pe all pe/atom
compute         2 all pressure thermo_temp

#read_dump       init.dump 5000 x y z vx vy vz box yes replace yes
#fix				1 all nve
#fix				1 all nvt temp 600 600 1.00
fix				1 all npt temp 700 700 1.0 aniso 0 0 1.0

thermo_style    custom step etotal ke temp pe ebond eangle edihed eimp evdwl ecoul elong press pxx pyy pzz pyz pxz pxy vol
thermo_modify   format float %.15g
thermo			1000

#dump			myDump all atom 100 atom.dump
dump			1 all custom 1000 out.dump id element mass type x y z fx fy fz vx vy vz c_pe
dump_modify		1 element Ge Sb Te

timestep		0.01
run				30000

