#### Prepare
units           metal
atom_style      atomic
boundary        p p p

#box             tilt large
read_data       poscars/lmp/disp-1.lmp

mass            1 28.0855

pair_style      sw
pair_coeff      * * ../../Si.sw Si
#pair_style	    nequip
#pair_coeff      * * ../../../../../frozen_model.pb Ge Sb Te
#pair_style      deepmd frozen_model.pb
#pair_coeff      * *
#pair_style		tersoff
#pair_coeff		* * Si.tersoff Si
#

#velocity        all create 100.0 1031
#read_dump       init.dump 40000 x y z vx vy vz box yes replace yes
#velocity        all zero linear
#velocity        all zero angular
#fix             1 all nve
#fix             1 all nvt temp 600 600 1.00
#fix             1 all npt temp 100 100 1.0 iso 0 0 10.0
compute         pe all pe/atom

thermo_style    custom step temp etotal pe ke press pxx pyy pzz pyz pxz pxy vol
thermo_modify   format float %.15g
thermo          1
log             log.lammps

dump            1 all custom 1 out.dump id element mass type x y z fx fy fz vx vy vz c_pe
dump_modify     1 element Si



