k-points along high symmetry lines
50  
Line-mode
rec
   0.0000000000     0.0000000000     0.0000000000     GM
   0.5000000000     0.0000000000     0.0000000000     L

   0.5000000000     0.0000000000     0.0000000000     L
   0.6288659794     0.2422680412     0.6288659794     U

   0.6288659794     0.2422680412     0.6288659794     U
   0.5000000000     0.0000000000     0.5000000000     X
   
   0.5000000000     0.0000000000     0.5000000000     X
   0.0000000000     0.0000000000     0.0000000000     GM

   0.0000000000     0.0000000000     0.0000000000     GM
   0.5000000000     0.5000000000     0.5000000000     Z

   0.5000000000     0.5000000000     0.5000000000     Z
   0.6288659794     0.2422680412     0.6288659794     U
