# Variables
variable        T equal 300
variable        kB equal 8.61733034e-5

#### Prepare
units           metal
atom_style      atomic
boundary        p p p
newton          off

#box             tilt large
read_data       structure.in

mass            1 72.64
mass            2 121.76
mass            3 127.60

pair_style      nequip
pair_coeff      * * ../../../../../../../../frozen_model.pb Ge Sb Te
#pair_style      deepmd frozen_model.pb
#pair_coeff      * *

compute         pe all pe/atom
#compute         2 all pressure thermo_temp

read_dump       init.dump 1000 x y z vx vy vz box yes replace yes
#velocity        all zero linear
#velocity        all zero angular
#fix             1 all nve
#fix             1 all nvt temp $T $T 1.00
#fix             1 all npt temp 100 100 1.0 iso 0 0 10.0
velocity        all create 0.0 1031

thermo_style    custom step temp etotal pe ke vol
thermo_modify   format float %.15g
thermo          1
log             log.lammps

dump            1 all custom 1 out.dump id element mass type x y z fx fy fz vx vy vz c_pe
dump_modify     1 element Ge Sb Te

# Relax
min_style       fire
minimize        0e-7 1e-5 1000 100000
