supercell-12x12x3
1.0
       51.7505111694         0.0000000000         0.0000000000
        0.0000000000        44.8172573316         0.0000000000
        0.0000000000         0.0000000000        52.4627342224
   Ge   Sb   Te
  864  864 2160
Cartesian
     2.295201540         1.325135231         1.732092857
    19.545372009         8.794678688        19.219671249
    45.420627594        31.203306198        36.707248688
    49.733169556         8.794678688        36.707248688
    51.886123657        10.037688255        50.727287292
    21.698328018        10.037688255        15.752129555
    19.545372009         8.794678688         1.732092857
    21.698328018        10.037688255        33.239707947
    47.573585510        32.446315765        50.727287292
    19.542057037         6.302917004        50.727287292
    17.389101028         5.059906483        36.707248688
    51.889438629        12.529448509         1.732092857
    54.042396545        13.772459030        15.752129555
    43.264354706        12.529448509         1.732092857
    19.542057037         6.302917004        33.239707947
    45.417316437        13.772459030        15.752129555
    19.545372009         8.794678688        36.707248688
    21.698328018        10.037688255        50.727287292
    51.886123657        10.037688255        33.239707947
    23.857913971        16.264221191         1.732092857
    49.729854584         6.302917004        50.727287292
    23.854598999        13.772459030        50.727287292
    21.701642990        12.529448509        36.707248688
    45.417316437        13.772459030        33.239707947
    43.264354706        12.529448509        19.219671249
    49.733169556         8.794678688         1.732092857
    51.886123657        10.037688255        15.752129555
    23.854598999        13.772459030        33.239707947
    21.701642990        12.529448509        19.219671249
    45.420627594        31.203306198        19.219671249
    47.573585510        32.446315765        33.239707947
    23.854598999        13.772459030        15.752129555
    21.701642990        12.529448509         1.732092857
    49.733169556         8.794678688        19.219671249
    17.389101028         5.059906483        19.219671249
    26.010871887        17.507230759        15.752129555
    47.576900482        34.938079834         1.732092857
    51.889438629        12.529448509        19.219671249
    36.792228699        43.650630951        33.239707947
    54.045711517        31.203306198        36.707248688
    54.045711517        16.264221191        19.219671249
    56.198665619        17.507230759        33.239707947
    36.792228699        43.650630951        15.752129555
    34.639270782        42.407619476         1.732092857
    41.108085632         8.794678688        36.707248688
    47.576900482        34.938079834        36.707248688
    34.635955811        39.915859222        50.727287292
    32.483001709        38.672847748        36.707248688
    54.045711517        16.264221191        36.707248688
    56.198665619        17.507230759        50.727287292
    34.635955811        39.915859222        33.239707947
    32.483001709        38.672847748        19.219671249
    49.729854584        36.181087494        50.727287292
    43.261043549        10.037688255        50.727287292
    34.639270782        42.407619476        36.707248688
    36.792228699        43.650630951        50.727287292
    19.542057037         6.302917004        15.752129555
    17.389101028         5.059906483         1.732092857
    54.042396545        13.772459030        33.239707947
    17.385786057         2.568145275        50.727287292
    15.232829094         1.325135231        36.707248688
    51.889438629        12.529448509        36.707248688
    54.042396545        13.772459030        50.727287292
    17.385786057         2.568145275        33.239707947
    15.232829094         1.325135231        19.219671249
    47.576900482        34.938079834        19.219671249
    17.385786057         2.568145275        15.752129555
    15.232829094         1.325135231         1.732092857
    49.729854584        36.181087494        33.239707947
    54.045711517        16.264221191         1.732092857
    56.198665619        17.507230759        15.752129555
    49.729854584        36.181087494        15.752129555
    43.261043549        10.037688255        33.239707947
    47.576896667         5.059906483        36.707248688
    45.420627594        31.203306198         1.732092857
    43.261039734        24.976774216        50.727287292
    34.635955811        32.446315765        33.239707947
    32.482997894        31.203306198        19.219671249
    64.827072144        42.407619476        19.219671249
    66.980026245        43.650630951        33.239707947
    34.635955811        32.446315765        15.752129555
    41.108085632        23.733764648        36.707248688
    32.482997894        31.203306198         1.732092857
    43.264358521        27.468534470         1.732092857
    32.479682922        28.711544037        50.727287292
    30.326728821        27.468534470        36.707248688
    64.827072144        42.407619476        36.707248688
    66.980026245        43.650630951        50.727287292
    45.417312622        28.711544037        15.752129555
    47.573585510        17.507230759        15.752129555
    32.482997894        31.203306198        36.707248688
    34.635955811        32.446315765        50.727287292
    66.980026245        43.650630951        15.752129555
    36.795543671        38.672847748         1.732092857
    64.823753357        39.915859222        33.239707947
    41.108085632        23.733764648        19.219671249
    36.792228699        36.181087494        50.727287292
    34.639270782        34.938079834        36.707248688
    43.261039734        24.976774216        33.239707947
    62.670799255        38.672847748        36.707248688
    64.823753357        39.915859222        50.727287292
    36.792228699        36.181087494        33.239707947
    34.639270782        34.938079834        19.219671249
    47.573585510        17.507230759        33.239707947
    45.420627594        16.264221191        19.219671249
    36.792228699        36.181087494        15.752129555
    34.639270782        34.938079834         1.732092857
    64.827072144        42.407619476         1.732092857
    32.479682922        28.711544037        33.239707947
    47.573585510        32.446315765        15.752129555
    30.326728821        27.468534470        19.219671249
    45.420627594         1.325135231         1.732092857
    43.264358521        27.468534470        36.707248688
    45.417312622        28.711544037        50.727287292
    28.167142868        21.242002487        33.239707947
    26.014184952        19.998992920        19.219671249
    47.576896667         5.059906483         1.732092857
    49.729854584         6.302917004        15.752129555
    43.264354706        12.529448509        36.707248688
    28.167142868        21.242002487        15.752129555
    26.010871887        17.507230759        50.727287292
    23.857913971        16.264221191        36.707248688
    47.576896667         5.059906483        19.219671249
    49.729854584         6.302917004        33.239707947
    26.010871887        17.507230759        33.239707947
    23.857913971        16.264221191        19.219671249
    26.014184952        19.998992920         1.732092857
    45.417316437        13.772459030        50.727287292
    26.014184952        19.998992920        36.707248688
    28.167142868        21.242002487        50.727287292
    32.479682922        28.711544037        15.752129555
    30.326728821        27.468534470         1.732092857
    47.573581696         2.568145275        15.752129555
    30.323413849        24.976774216        50.727287292
    28.170457840        23.733764648        36.707248688
    43.264358521        27.468534470        19.219671249
    45.417312622        28.711544037        33.239707947
    45.420627594         1.325135231        19.219671249
    47.573581696         2.568145275        33.239707947
    30.323413849        24.976774216        33.239707947
    28.170457840        23.733764648        19.219671249
    30.323413849        24.976774216        15.752129555
    28.170457840        23.733764648         1.732092857
    45.420627594         1.325135231        36.707248688
    47.573581696         2.568145275        50.727287292
    45.420627594        16.264221191         1.732092857
    56.201984406        19.998992920         1.732092857
    34.635955811        39.915859222        15.752129555
    32.483001709        38.672847748         1.732092857
    64.827072144        34.938079834        19.219671249
    66.980026245        36.181087494        33.239707947
    17.385786057        10.037688255        15.752129555
    15.232830048         8.794678688         1.732092857
    41.104774475         6.302917004        15.752129555
    38.951812744         5.059906483         1.732092857
    34.635955811         2.568145275        33.239707947
    15.229514122         6.302917004        50.727287292
    64.827072144        34.938079834        36.707248688
    66.980026245        36.181087494        50.727287292
    15.229514122         6.302917004        33.239707947
    13.076558113         5.059906483        19.219671249
    32.482997894         1.325135231        36.707248688
    34.635955811         2.568145275        50.727287292
    13.076558113         5.059906483        36.707248688
    15.232830048         8.794678688        19.219671249
    17.385786057        10.037688255        33.239707947
    32.482997894         1.325135231        19.219671249
    38.951812744         5.059906483        19.219671249
    19.542057037        13.772459030        50.727287292
    17.389101028        12.529448509        36.707248688
    32.482997894         1.325135231         1.732092857
    62.670795441        31.203306198        36.707248688
    64.823753357        32.446315765        50.727287292
    19.542057037        13.772459030        33.239707947
    17.389101028        12.529448509        19.219671249
    34.635955811         2.568145275        15.752129555
    19.542057037        13.772459030        15.752129555
    17.389101028        12.529448509         1.732092857
    64.827072144        34.938079834         1.732092857
    66.980026245        36.181087494        15.752129555
    17.385786057        10.037688255        50.727287292
    15.232830048         8.794678688        36.707248688
    66.983337402        38.672847748         1.732092857
    41.104774475         6.302917004        33.239707947
    15.229514122         6.302917004        15.752129555
    69.136291504        39.915859222        15.752129555
    71.292564392        43.650630951        15.752129555
    32.479686737        43.650630951        15.752129555
    30.326726913        42.407619476         1.732092857
    34.639270782         5.059906483        19.219671249
    36.792228699         6.302917004        33.239707947
    30.323413849        39.915859222        50.727287292
    69.139610291        42.407619476         1.732092857
    28.170455933        38.672847748        36.707248688
    71.292564392        43.650630951        33.239707947
    30.323413849        39.915859222        33.239707947
    28.170455933        38.672847748        19.219671249
    38.948501587         2.568145275        33.239707947
    36.795543671         1.325135231        19.219671249
    34.639270782         5.059906483        36.707248688
    69.139610291        42.407619476        19.219671249
    30.326726913        42.407619476        19.219671249
    32.479686737        43.650630951        33.239707947
    36.795543671         1.325135231        36.707248688
    13.073243141         2.568145275        50.727287292
    10.920287132         1.325135231        36.707248688
    66.983337402        38.672847748        19.219671249
    69.136291504        39.915859222        33.239707947
    13.073243141         2.568145275        33.239707947
    10.920287132         1.325135231        19.219671249
    38.948501587         2.568145275        50.727287292
    34.639270782         5.059906483         1.732092857
    36.792228699         6.302917004        15.752129555
    13.073243141         2.568145275        15.752129555
    10.920287132         1.325135231         1.732092857
    66.983337402        38.672847748        36.707248688
    69.136291504        39.915859222        50.727287292
    32.479686737        43.650630951        50.727287292
    30.326726913        42.407619476        36.707248688
    13.076558113         5.059906483         1.732092857
    64.823753357        32.446315765        33.239707947
    19.545372009        16.264221191         1.732092857
    21.698328018        17.507230759        15.752129555
    28.170457840        31.203306198        19.219671249
    58.358253479        23.733764648         1.732092857
    60.511207581        24.976774216        15.752129555
    30.323413849        32.446315765        15.752129555
    28.170457840        31.203306198         1.732092857
    43.261043549        10.037688255        15.752129555
    30.323413849        32.446315765        33.239707947
    41.108085632         8.794678688         1.732092857
    51.886127472        39.915859222        50.727287292
    28.167140961        28.711544037        50.727287292
    26.014186859        27.468534470        36.707248688
    58.358253479        23.733764648        19.219671249
    60.511207581        24.976774216        33.239707947
    28.167140961        28.711544037        33.239707947
    49.733173370        38.672847748        36.707248688
    51.886127472        39.915859222        33.239707947
    28.170457840        31.203306198        36.707248688
    30.323413849        32.446315765        50.727287292
    58.354938507        21.242002487        15.752129555
    49.733173370        38.672847748         1.732092857
    51.886127472        39.915859222        15.752129555
    32.479682922        36.181087494        50.727287292
    30.326728821        34.938079834        36.707248688
    41.108085632         8.794678688        19.219671249
    56.201984406        19.998992920        19.219671249
    58.354938507        21.242002487        33.239707947
    32.479682922        36.181087494        33.239707947
    30.326728821        34.938079834        19.219671249
    32.479682922        36.181087494        15.752129555
    30.326728821        34.938079834         1.732092857
    49.733173370        38.672847748        19.219671249
    56.201984406        19.998992920        36.707248688
    58.354938507        21.242002487        50.727287292
    26.014186859        27.468534470        19.219671249
    58.358253479        23.733764648        36.707248688
    28.167140961        28.711544037        15.752129555
    26.014186859        27.468534470         1.732092857
    23.854598999        21.242002487        33.239707947
    21.701642990        19.998992920        19.219671249
    60.514526367        27.468534470        36.707248688
    62.667480469        28.711544037        50.727287292
    23.854598999        21.242002487        15.752129555
    21.701642990        19.998992920         1.732092857
    21.698328018        17.507230759        50.727287292
    19.545372009        16.264221191        36.707248688
    62.670795441        31.203306198         1.732092857
    64.823753357        32.446315765        15.752129555
    51.889442444        42.407619476        36.707248688
    21.698328018        17.507230759        33.239707947
    19.545372009        16.264221191        19.219671249
    54.042400360        43.650630951        50.727287292
    62.670795441        31.203306198        19.219671249
    54.042400360        43.650630951        33.239707947
    38.948497772        39.915859222        15.752129555
    51.889442444        42.407619476        19.219671249
    23.854598999        21.242002487        50.727287292
    60.511207581        24.976774216        50.727287292
    26.010869980        24.976774216        50.727287292
    23.857915878        23.733764648        36.707248688
    51.889442444        42.407619476         1.732092857
    54.042400360        43.650630951        15.752129555
    60.514526367        27.468534470         1.732092857
    62.667480469        28.711544037        15.752129555
    26.010869980        24.976774216        33.239707947
    23.857915878        23.733764648        19.219671249
    26.010869980        24.976774216        15.752129555
    23.857915878        23.733764648         1.732092857
    41.104774475         6.302917004        50.727287292
    38.951812744         5.059906483        36.707248688
    60.514526367        27.468534470        19.219671249
    62.667480469        28.711544037        33.239707947
    21.701642990        19.998992920        36.707248688
    62.670799255        38.672847748        19.219671249
    36.795543671        38.672847748        19.219671249
    38.948497772        39.915859222        33.239707947
    45.417312622         6.302917004        15.752129555
    30.323411942        10.037688255        50.727287292
    28.170457840         8.794678688        36.707248688
    51.889442444        27.468534470        19.219671249
    30.323411942        10.037688255        33.239707947
    28.170457840         8.794678688        19.219671249
    43.264354706         5.059906483         1.732092857
    43.264354706         5.059906483        19.219671249
    30.323411942        10.037688255        15.752129555
    28.170457840         8.794678688         1.732092857
    30.326730728         5.059906483        19.219671249
    32.479686737         6.302917004        33.239707947
    28.167140961         6.302917004        50.727287292
    26.014186859         5.059906483        36.707248688
    45.417312622         6.302917004        33.239707947
    32.479686737         6.302917004        15.752129555
    30.326728821        12.529448509         1.732092857
    32.479682922        13.772459030        15.752129555
    32.483001709        16.264221191        19.219671249
    28.170459747         1.325135231        36.707248688
    30.323413849         2.568145275        50.727287292
    41.108085632         1.325135231        19.219671249
    34.635955811        17.507230759        15.752129555
    32.483001709        16.264221191         1.732092857
    43.261039734         2.568145275        33.239707947
    32.479682922        13.772459030        50.727287292
    30.326728821        12.529448509        36.707248688
    41.108085632         1.325135231        36.707248688
    43.261039734         2.568145275        50.727287292
    32.479682922        13.772459030        33.239707947
    30.326728821        12.529448509        19.219671249
    54.042400360        28.711544037        33.239707947
    30.326730728         5.059906483         1.732092857
    43.264354706         5.059906483        36.707248688
    34.635955811        17.507230759        33.239707947
    45.417312622         6.302917004        50.727287292
    26.014186859         5.059906483        19.219671249
    45.417312622        43.650630951        50.727287292
    43.264354706        42.407619476        36.707248688
    34.635955811        10.037688255        15.752129555
    45.417312622        43.650630951        33.239707947
    43.264354706        42.407619476        19.219671249
    47.576896667        12.529448509         1.732092857
    47.573581696        10.037688255        50.727287292
    49.729854584        13.772459030        15.752129555
    43.264354706        42.407619476         1.732092857
    51.886127472        24.976774216        50.727287292
    49.733169556        23.733764648        36.707248688
    32.483001709         8.794678688        19.219671249
    34.635955811        10.037688255        33.239707947
    43.261039734        39.915859222        50.727287292
    45.417312622        43.650630951        15.752129555
    45.420627594         8.794678688        36.707248688
    32.483001709         8.794678688         1.732092857
    23.857915878         1.325135231         1.732092857
    54.042400360        28.711544037        15.752129555
    51.889442444        27.468534470         1.732092857
    45.420627594         8.794678688         1.732092857
    28.167140961         6.302917004        15.752129555
    26.014186859         5.059906483         1.732092857
    47.573581696        10.037688255        15.752129555
    30.326730728         5.059906483        36.707248688
    32.479686737         6.302917004        50.727287292
    26.010869980         2.568145275        50.727287292
    23.857915878         1.325135231        36.707248688
    45.420627594         8.794678688        19.219671249
    47.573581696        10.037688255        33.239707947
    26.010869980         2.568145275        33.239707947
    23.857915878         1.325135231        19.219671249
    26.010869980         2.568145275        15.752129555
    28.167140961         6.302917004        33.239707947
    43.261039734         2.568145275        15.752129555
    41.108085632         1.325135231         1.732092857
    32.483001709        16.264221191        36.707248688
    56.201984406        34.938079834        36.707248688
    58.354942322        36.181087494        50.727287292
    43.261039734        32.446315765        50.727287292
    41.108085632        31.203306198        36.707248688
    54.045711517        31.203306198        19.219671249
    47.576900482        42.407619476        19.219671249
    56.198673248        32.446315765        33.239707947
    49.729854584        43.650630951        33.239707947
    41.108085632        31.203306198        19.219671249
    58.358257294        38.672847748         1.732092857
    60.511215210        39.915859222        15.752129555
    43.261039734        32.446315765        15.752129555
    41.108085632        31.203306198         1.732092857
    41.104766846        28.711544037        50.727287292
    43.261039734        32.446315765        33.239707947
    43.264358521        34.938079834         1.732092857
    45.417312622        36.181087494        15.752129555
    43.264358521        34.938079834        19.219671249
    56.198673248        32.446315765        50.727287292
    47.573581696        39.915859222        50.727287292
    47.573581696        39.915859222        33.239707947
    45.420627594        38.672847748        19.219671249
    56.201984406        34.938079834         1.732092857
    47.573581696        39.915859222        15.752129555
    45.420627594        38.672847748         1.732092857
    58.354942322        36.181087494        15.752129555
    45.417312622        36.181087494        50.727287292
    43.264358521        34.938079834        36.707248688
    47.576900482        42.407619476         1.732092857
    49.729854584        43.650630951        15.752129555
    56.201984406        34.938079834        19.219671249
    58.354942322        36.181087494        33.239707947
    45.417312622        36.181087494        33.239707947
    38.951812744        27.468534470        36.707248688
    58.358257294        38.672847748        19.219671249
    60.511215210        39.915859222        33.239707947
    41.104766846        28.711544037        33.239707947
    60.514526367        42.407619476        19.219671249
    62.667488098        43.650630951        33.239707947
    36.792224884        21.242002487        50.727287292
    34.639270782        19.998992920        36.707248688
    36.792224884        21.242002487        33.239707947
    34.639270782        19.998992920        19.219671249
    28.170459747         1.325135231        19.219671249
    60.514526367        42.407619476        36.707248688
    62.667488098        43.650630951        50.727287292
    36.792224884        21.242002487        15.752129555
    34.639270782        19.998992920         1.732092857
    30.323413849         2.568145275        33.239707947
    54.042400360        28.711544037        50.727287292
    51.889442444        27.468534470        36.707248688
    34.635955811        17.507230759        50.727287292
    36.795543671        23.733764648         1.732092857
    41.108085632        38.672847748        36.707248688
    38.948497772        24.976774216        15.752129555
    28.170459747         1.325135231         1.732092857
    38.951812744        27.468534470        19.219671249
    47.576900482        42.407619476        36.707248688
    49.729854584        43.650630951        50.727287292
    58.358257294        38.672847748        36.707248688
    41.104766846        28.711544037        15.752129555
    38.951812744        27.468534470         1.732092857
    60.511215210        39.915859222        50.727287292
    56.198673248        32.446315765        15.752129555
    38.948497772        24.976774216        50.727287292
    36.795543671        23.733764648        36.707248688
    54.045711517        31.203306198         1.732092857
    60.514526367        42.407619476         1.732092857
    62.667488098        43.650630951        15.752129555
    38.948497772        24.976774216        33.239707947
    36.795543671        23.733764648        19.219671249
    30.323413849         2.568145275        15.752129555
    69.139610291        42.407619476        36.707248688
    47.576896667        12.529448509        19.219671249
    43.261039734        39.915859222        33.239707947
    23.857913971         8.794678688        36.707248688
    26.010869980        10.037688255        33.239707947
    23.857913971         8.794678688        19.219671249
    58.358253479        31.203306198         1.732092857
    60.511211395        32.446315765        15.752129555
    26.010869980        10.037688255        15.752129555
    26.010869980        10.037688255        50.727287292
    23.857913971         8.794678688         1.732092857
    41.104770660        21.242002487        15.752129555
    23.854598999         6.302917004        50.727287292
    21.701642990         5.059906483        36.707248688
    58.358253479        31.203306198        19.219671249
    60.511211395        32.446315765        33.239707947
    23.854598999         6.302917004        33.239707947
    38.951816559        19.998992920         1.732092857
    58.354938507        28.711544037        50.727287292
    56.201984406        27.468534470        36.707248688
    26.014184952        12.529448509         1.732092857
    56.201984406        27.468534470         1.732092857
    30.323413849        17.507230759        15.752129555
    28.170455933        16.264221191         1.732092857
    58.354938507        28.711544037        15.752129555
    28.167140961        13.772459030        50.727287292
    26.014184952        12.529448509        36.707248688
    49.729858398        21.242002487        33.239707947
    56.201984406        27.468534470        19.219671249
    58.354938507        28.711544037        33.239707947
    28.167140961        13.772459030        33.239707947
    26.014184952        12.529448509        19.219671249
    47.576900482        19.998992920        19.219671249
    36.795543671        16.264221191        36.707248688
    38.948497772        17.507230759        50.727287292
    28.167140961        13.772459030        15.752129555
    21.701642990         5.059906483        19.219671249
    38.948497772        17.507230759        33.239707947
    49.729858398        21.242002487        15.752129555
    38.951816559        19.998992920        19.219671249
    47.573585510        17.507230759        50.727287292
    41.104770660        43.650630951        33.239707947
    38.951812744        42.407619476        19.219671249
    45.420627594        16.264221191        36.707248688
    60.514526367        34.938079834        36.707248688
    62.667480469        36.181087494        50.727287292
    38.951812744        42.407619476        36.707248688
    41.104770660        43.650630951        15.752129555
    41.108085632        23.733764648         1.732092857
    43.261039734        24.976774216        15.752129555
    38.948497772        39.915859222        50.727287292
    36.795543671        38.672847748        36.707248688
    62.670799255        38.672847748         1.732092857
    64.823753357        39.915859222        15.752129555
    38.951812744        42.407619476         1.732092857
    41.104770660        43.650630951        50.727287292
    62.667480469        36.181087494        33.239707947
    60.514526367        34.938079834        19.219671249
    58.358253479        31.203306198        36.707248688
    23.854598999         6.302917004        15.752129555
    21.701642990         5.059906483         1.732092857
    60.511211395        32.446315765        50.727287292
    41.104770660        21.242002487        33.239707947
    21.698328018         2.568145275        50.727287292
    19.545372009         1.325135231        36.707248688
    60.514526367        34.938079834         1.732092857
    62.667480469        36.181087494        15.752129555
    21.698328018         2.568145275        33.239707947
    19.545372009         1.325135231        19.219671249
    21.698328018         2.568145275        15.752129555
    19.545372009         1.325135231         1.732092857
    38.951816559        19.998992920        36.707248688
    41.104770660        21.242002487        50.727287292
    47.576900482        19.998992920         1.732092857
    36.795543671        16.264221191        19.219671249
    28.170455933        16.264221191        19.219671249
    30.323413849        17.507230759        33.239707947