GeSbTe(3_ferro_fixed)                   
   1.00000000000000     
     4.2840652036609788    0.0000000000000243    0.0000000000000056
     2.1420326018305347    3.7101092978390207    0.0000000000000047
     0.0000000000000173    0.0000000000000080   17.6529806957237163
   Ge   Sb   Te
     2     2     5
Direct
  0.3333333333333286  0.3333333333333286  0.4609387166734786
  0.0000000000000000  0.0000000000000000  0.6683162300703583
  0.3333333333333286  0.3333333333333286  0.1189808685355341
  0.6666666666666572  0.6666666666666572  0.8906208935170051
  0.0000000000000000  0.0000000000000000  0.0013182028557455
  0.6666666666666572  0.6666666666666572  0.2160856960156966
 -0.0000000000000000  0.0000000000000000  0.3807666313124080
  0.6666666666666572  0.6666666666666572  0.5865809930419160
  0.3333333333333286  0.3333333333333286  0.7901901418618794

