supercell-16x16x4
1.0
       67.6536026001         0.0000000000         0.0000000000
        0.0000000000        58.5897385092         0.0000000000
        0.0000000000         0.0000000000        67.9429321289
   Ge   Sb   Te
 2048 2048 5120
Cartesian
     2.114175081         1.220619559         1.717552304
    63.425254822         9.764956474        15.268179893
    61.311077118         8.544336319         1.717552304
    27.484275818         8.544336319        52.674751282
    29.598449707         9.764956474        66.225379944
    29.598451614        12.206194878         1.717552304
    31.712625504        13.426815033        15.268179893
    61.311077118         6.103097439        66.225379944
    59.196903229         4.882478237        52.674751282
    29.598451614        12.206194878        18.703285217
    31.712625504        13.426815033        32.253913879
    29.598451614        12.206194878        35.689018250
    31.712625504        13.426815033        49.239646912
    61.311077118         6.103097439        49.239646912
    59.196903229         4.882478237        35.689018250
    29.598451614        12.206194878        52.674751282
    31.712625504        13.426815033        66.225379944
    61.311077118         6.103097439        32.253913879
    31.712627411        15.868054390         1.717552304
    33.826801300        17.088672638        15.268179893
    29.598449707         9.764956474        49.239646912
    27.484275818         8.544336319        35.689018250
    29.598449707         9.764956474        32.253913879
    52.854377747        15.868054390        35.689018250
    23.255926132         1.220619559        52.674751282
    25.370100021         2.441239119        66.225379944
    65.539428711        13.426815033        15.268179893
    63.425251007        12.206194878         1.717552304
    25.370101929         4.882478237         1.717552304
    27.484273911         6.103097439        15.268179893
    25.370101929         4.882478237        18.703285217
    27.484273911         6.103097439        32.253913879
    63.425254822         9.764956474        66.225379944
    59.196903229         4.882478237        18.703285217
    61.311077118         8.544336319        52.674751282
    27.484273911         6.103097439        49.239646912
    63.425254822         9.764956474        49.239646912
    25.370101929         4.882478237        52.674751282
    27.484273911         6.103097439        66.225379944
    61.311077118         8.544336319        35.689018250
    27.484275818         8.544336319         1.717552304
    29.598449707         9.764956474        15.268179893
    63.425254822         9.764956474        32.253913879
    61.311077118         8.544336319        18.703285217
    25.370101929         4.882478237        35.689018250
    31.712627411        15.868054390        18.703285217
    33.826801300        17.088672638        32.253913879
    61.311077118         6.103097439        15.268179893
    57.082725525         1.220619559         1.717552304
    35.940975189        23.191770554        35.689018250
    38.055149078        24.412389755        49.239646912
    86.681182861        57.369117737        66.225379944
    84.567001343        56.148498535        52.674751282
    35.940975189        23.191770554        52.674751282
    38.055149078        24.412389755        66.225379944
    38.055152893        26.853630066         1.717552304
    40.169322968        28.074249268        15.268179893
    38.055149078        24.412389755        32.253913879
    86.681182861        57.369117737        49.239646912
    38.055152893        26.853630066        18.703285217
    40.169322968        28.074249268        32.253913879
    38.055152893        26.853630066        35.689018250
    40.169322968        28.074249268        49.239646912
    86.681182861        57.369117737        32.253913879
    84.567001343        56.148498535        18.703285217
    38.055152893        26.853630066        52.674751282
    40.169322968        28.074249268        66.225379944
    40.169326782        30.515487671         1.717552304
    84.567001343        56.148498535        35.689018250
    25.370100021         2.441239119        49.239646912
    35.940975189        23.191770554        18.703285217
    38.055149078        24.412389755        15.268179893
    59.196903229         4.882478237         1.717552304
    31.712627411        15.868054390        35.689018250
    33.826801300        17.088672638        49.239646912
    31.712627411        15.868054390        52.674751282
    33.826801300        17.088672638        66.225379944
    59.196903229         2.441239119        66.225379944
    57.082725525         1.220619559        52.674751282
    33.826801300        19.529912949         1.717552304
    35.940975189        20.750532150        15.268179893
    59.196903229         2.441239119        15.268179893
    33.826801300        19.529912949        18.703285217
    59.196903229         2.441239119        49.239646912
    57.082725525         1.220619559        35.689018250
    33.826801300        19.529912949        35.689018250
    35.940975189        20.750532150        49.239646912
    33.826801300        19.529912949        52.674751282
    35.940975189        20.750532150        66.225379944
    59.196903229         2.441239119        32.253913879
    57.082725525         1.220619559        18.703285217
    35.940975189        23.191770554         1.717552304
    35.940975189        20.750532150        32.253913879
    42.283500671        31.736108780        15.268179893
    23.255926132         1.220619559        35.689018250
    65.539428711        13.426815033        32.253913879
    42.283500671        41.501064301         1.717552304
    44.397674561        42.721683502        15.268179893
    69.767776489        23.191770554        18.703285217
    42.283500671        41.501064301        18.703285217
    44.397674561        42.721683502        32.253913879
    71.881950378        24.412389755        15.268179893
    69.767776489        23.191770554         1.717552304
    42.283500671        41.501064301        35.689018250
    44.397674561        42.721683502        49.239646912
    42.283500671        41.501064301        52.674751282
    44.397674561        42.721683502        66.225379944
    69.767776489        20.750532150        66.225379944
    67.653602600        19.529912949        52.674751282
    44.397678375        45.162921906         1.717552304
    46.511852264        46.383541107        15.268179893
    44.397678375        45.162921906        18.703285217
    46.511852264        46.383541107        32.253913879
    69.767776489        20.750532150        49.239646912
    67.653602600        19.529912949        35.689018250
    71.881950378        24.412389755        32.253913879
    42.283500671        39.059825897        66.225379944
    40.169326782        37.839202881        52.674751282
    69.767776489        23.191770554        35.689018250
    40.169326782        35.397968292        15.268179893
    73.996124268        28.074249268        32.253913879
    71.881950378        26.853630066        18.703285217
    38.055152893        34.177345276        18.703285217
    40.169326782        35.397968292        32.253913879
    38.055152893        34.177345276        35.689018250
    40.169326782        35.397968292        49.239646912
    73.996124268        28.074249268        15.268179893
    71.881950378        26.853630066         1.717552304
    44.397678375        45.162921906        35.689018250
    38.055152893        34.177345276        52.674751282
    40.169326782        37.839202881         1.717552304
    42.283500671        39.059825897        15.268179893
    71.881950378        24.412389755        66.225379944
    69.767776489        23.191770554        52.674751282
    40.169326782        37.839202881        18.703285217
    42.283500671        39.059825897        32.253913879
    40.169326782        37.839202881        35.689018250
    42.283500671        39.059825897        49.239646912
    71.881950378        24.412389755        49.239646912
    40.169326782        35.397968292        66.225379944
    46.511852264        46.383541107        49.239646912
    44.397678375        45.162921906        52.674751282
    46.511852264        46.383541107        66.225379944
    48.626026154        52.486637115        52.674751282
    50.740200043        53.707260132        66.225379944
    50.740200043        56.148498535         1.717552304
    52.854377747        57.369117737        15.268179893
    67.653602600        17.088672638        15.268179893
    65.539428711        15.868054390         1.717552304
    50.740200043        56.148498535        18.703285217
    52.854377747        57.369117737        32.253913879
    65.539428711        13.426815033        66.225379944
    65.539428711        15.868054390        18.703285217
    50.740200043        56.148498535        35.689018250
    63.425251007        12.206194878        52.674751282
    50.740200043        56.148498535        52.674751282
    52.854377747        57.369117737        66.225379944
    65.539428711        13.426815033        49.239646912
    63.425251007        12.206194878        35.689018250
    23.255926132         1.220619559         1.717552304
    25.370100021         2.441239119        15.268179893
    23.255926132         1.220619559        18.703285217
    25.370100021         2.441239119        32.253913879
    52.854377747        57.369117737        49.239646912
    63.425251007        12.206194878        18.703285217
    67.653602600        17.088672638        32.253913879
    48.626026154        52.486637115        35.689018250
    69.767776489        20.750532150        32.253913879
    67.653602600        19.529912949        18.703285217
    46.511852264        48.824779510         1.717552304
    48.626026154        50.045402527        15.268179893
    69.767776489        20.750532150        15.268179893
    46.511852264        48.824779510        18.703285217
    48.626026154        50.045402527        32.253913879
    67.653602600        19.529912949         1.717552304
    46.511852264        48.824779510        35.689018250
    50.740200043        53.707260132        49.239646912
    48.626026154        50.045402527        49.239646912
    65.539428711        15.868054390        52.674751282
    46.511852264        48.824779510        52.674751282
    48.626026154        50.045402527        66.225379944
    48.626026154        52.486637115         1.717552304
    50.740200043        53.707260132        15.268179893
    67.653602600        17.088672638        49.239646912
    65.539428711        15.868054390        35.689018250
    48.626026154        52.486637115        18.703285217
    50.740200043        53.707260132        32.253913879
    67.653602600        17.088672638        66.225379944
    38.055152893        34.177345276         1.717552304
    86.681182861        57.369117737        15.268179893
    40.169326782        30.515487671        18.703285217
    73.996131897        35.397968292        49.239646912
    71.881950378        34.177345276        35.689018250
    31.712627411         8.544336319         1.717552304
    33.826801300         9.764956474        15.268179893
    31.712627411         8.544336319        18.703285217
    33.826801300         9.764956474        32.253913879
    73.996131897        35.397968292        32.253913879
    71.881950378        34.177345276        18.703285217
    31.712627411         8.544336319        35.689018250
    33.826801300         9.764956474        49.239646912
    31.712627411         8.544336319        52.674751282
    33.826801300         9.764956474        66.225379944
    73.996131897        35.397968292        15.268179893
    71.881950378        34.177345276         1.717552304
    33.826801300        12.206194878         1.717552304
    35.940975189        13.426815033        15.268179893
    33.826801300        12.206194878        18.703285217
    35.940975189        13.426815033        32.253913879
    71.881958008        31.736108780        66.225379944
    31.712625504         6.103097439        66.225379944
    29.598453522         4.882478237        52.674751282
    71.881950378        34.177345276        52.674751282
    31.712625504         6.103097439        49.239646912
    27.484277725         1.220619559         1.717552304
    29.598451614         2.441239119        15.268179893
    76.110305786        39.059825897        49.239646912
    73.996124268        37.839202881        35.689018250
    27.484277725         1.220619559        18.703285217
    29.598451614         2.441239119        32.253913879
    27.484277725         1.220619559        35.689018250
    29.598451614         2.441239119        49.239646912
    76.110305786        39.059825897        32.253913879
    69.767776489        30.515487671        52.674751282
    73.996124268        37.839202881        18.703285217
    29.598451614         2.441239119        66.225379944
    29.598453522         4.882478237         1.717552304
    31.712625504         6.103097439        15.268179893
    76.110305786        39.059825897        15.268179893
    73.996124268        37.839202881         1.717552304
    29.598453522         4.882478237        18.703285217
    31.712625504         6.103097439        32.253913879
    73.996131897        35.397968292        66.225379944
    29.598453522         4.882478237        35.689018250
    27.484277725         1.220619559        52.674751282
    33.826801300        12.206194878        35.689018250
    35.940975189        13.426815033        49.239646912
    71.881958008        31.736108780        49.239646912
    67.653602600        26.853630066        35.689018250
    38.055152893        19.529912949        52.674751282
    40.169326782        20.750532150        66.225379944
    69.767776489        28.074249268        32.253913879
    40.169326782        23.191770554         1.717552304
    42.283500671        24.412389755        15.268179893
    67.653602600        26.853630066        18.703285217
    40.169326782        23.191770554        18.703285217
    42.283500671        24.412389755        32.253913879
    69.767776489        28.074249268        49.239646912
    69.767776489        28.074249268        15.268179893
    40.169326782        23.191770554        35.689018250
    42.283500671        24.412389755        49.239646912
    40.169326782        23.191770554        52.674751282
    42.283500671        24.412389755        66.225379944
    67.653602600        24.412389755        66.225379944
    65.539428711        23.191770554        52.674751282
    42.283504486        26.853630066         1.717552304
    44.397674561        28.074249268        15.268179893
    42.283504486        26.853630066        18.703285217
    67.653602600        26.853630066         1.717552304
    57.082725525        57.369117737        66.225379944
    40.169326782        20.750532150        49.239646912
    40.169326782        20.750532150        32.253913879
    33.826801300        12.206194878        52.674751282
    35.940975189        13.426815033        66.225379944
    69.767776489        30.515487671        35.689018250
    35.940979004        15.868054390         1.717552304
    38.055152893        17.088672638        15.268179893
    71.881958008        31.736108780        32.253913879
    69.767776489        30.515487671        18.703285217
    35.940979004        15.868054390        18.703285217
    38.055152893        17.088672638        32.253913879
    38.055152893        19.529912949        35.689018250
    35.940979004        15.868054390        35.689018250
    71.881958008        31.736108780        15.268179893
    69.767776489        30.515487671         1.717552304
    35.940979004        15.868054390        52.674751282
    38.055152893        17.088672638        66.225379944
    38.055152893        19.529912949         1.717552304
    40.169326782        20.750532150        15.268179893
    69.767776489        28.074249268        66.225379944
    67.653602600        26.853630066        52.674751282
    38.055152893        19.529912949        18.703285217
    38.055152893        17.088672638        49.239646912
    84.567001343        56.148498535         1.717552304
    54.968551636        56.148498535        52.674751282
    76.110305786        39.059825897        66.225379944
    46.511852264        39.059825897        32.253913879
    82.452835083        50.045402527        66.225379944
    80.338653564        48.824779510        52.674751282
    44.397674561        37.839202881        35.689018250
    46.511852264        39.059825897        49.239646912
    82.452835083        50.045402527        49.239646912
    44.397674561        37.839202881        52.674751282
    46.511852264        39.059825897        66.225379944
    80.338653564        48.824779510        35.689018250
    46.511852264        41.501064301         1.717552304
    48.626026154        42.721683502        15.268179893
    82.452835083        50.045402527        32.253913879
    80.338653564        48.824779510        18.703285217
    46.511852264        41.501064301        18.703285217
    48.626026154        42.721683502        32.253913879
    46.511852264        41.501064301        35.689018250
    48.626026154        42.721683502        49.239646912
    82.452835083        50.045402527        15.268179893
    80.338653564        48.824779510         1.717552304
    44.397674561        37.839202881        18.703285217
    46.511852264        39.059825897        15.268179893
    44.397674561        37.839202881         1.717552304
    82.452827454        52.486637115         1.717552304
    42.283500671        31.736108780        32.253913879
    84.567008972        53.707260132        66.225379944
    40.169326782        30.515487671        35.689018250
    42.283500671        31.736108780        49.239646912
    82.452827454        52.486637115        52.674751282
    40.169326782        30.515487671        52.674751282
    42.283500671        31.736108780        66.225379944
    84.567008972        53.707260132        49.239646912
    82.452827454        52.486637115        35.689018250
    46.511852264        41.501064301        52.674751282
    42.283500671        34.177345276         1.717552304
    42.283500671        34.177345276        18.703285217
    44.397674561        35.397968292        32.253913879
    84.567008972        53.707260132        32.253913879
    82.452827454        52.486637115        18.703285217
    42.283500671        34.177345276        35.689018250
    44.397674561        35.397968292        49.239646912
    42.283500671        34.177345276        52.674751282
    44.397674561        35.397968292        66.225379944
    84.567008972        53.707260132        15.268179893
    44.397674561        35.397968292        15.268179893
    48.626026154        42.721683502        66.225379944
    48.626026154        45.162921906         1.717552304
    50.740200043        46.383541107        15.268179893
    52.854377747        52.486637115         1.717552304
    54.968551636        53.707260132        15.268179893
    52.854377747        52.486637115        18.703285217
    54.968551636        53.707260132        32.253913879
    78.224479675        42.721683502        49.239646912
    76.110298157        41.501064301        35.689018250
    52.854377747        52.486637115        35.689018250
    54.968551636        53.707260132        49.239646912
    52.854377747        52.486637115        52.674751282
    76.110298157        41.501064301        52.674751282
    54.968551636        53.707260132        66.225379944
    76.110298157        41.501064301        18.703285217
    54.968551636        56.148498535         1.717552304
    57.082725525        57.369117737        15.268179893
    78.224479675        42.721683502        15.268179893
    54.968551636        56.148498535        18.703285217
    57.082725525        57.369117737        32.253913879
    76.110298157        41.501064301         1.717552304
    54.968551636        56.148498535        35.689018250
    57.082725525        57.369117737        49.239646912
    78.224479675        42.721683502        32.253913879
    73.996124268        37.839202881        52.674751282
    78.224479675        42.721683502        66.225379944
    50.740200043        48.824779510        52.674751282
    80.338653564        46.383541107        66.225379944
    78.224479675        45.162921906        52.674751282
    48.626026154        45.162921906        18.703285217
    50.740200043        46.383541107        32.253913879
    48.626026154        45.162921906        35.689018250
    50.740200043        46.383541107        49.239646912
    80.338653564        46.383541107        49.239646912
    78.224479675        45.162921906        35.689018250
    48.626026154        45.162921906        52.674751282
    52.854377747        50.045402527        66.225379944
    50.740200043        46.383541107        66.225379944
    50.740200043        48.824779510         1.717552304
    52.854377747        50.045402527        15.268179893
    78.224479675        45.162921906        18.703285217
    50.740200043        48.824779510        18.703285217
    52.854377747        50.045402527        32.253913879
    80.338653564        46.383541107        15.268179893
    78.224479675        45.162921906         1.717552304
    50.740200043        48.824779510        35.689018250
    52.854377747        50.045402527        49.239646912
    80.338653564        46.383541107        32.253913879
    71.881950378        26.853630066        35.689018250
    38.055152893        31.736108780        66.225379944
    35.940975189        30.515487671        52.674751282
    25.370101929        17.088672638        15.268179893
    69.767776489        13.426815033        15.268179893
    67.653602600        12.206194878         1.717552304
    23.255926132        15.868054390        18.703285217
    25.370101929        17.088672638        32.253913879
    67.653602600         9.764956474        66.225379944
    23.255926132        15.868054390        35.689018250
    25.370101929        17.088672638        49.239646912
    65.539428711         8.544336319        52.674751282
    23.255926132        15.868054390        52.674751282
    25.370101929        17.088672638        66.225379944
    67.653602600         9.764956474        49.239646912
    65.539428711         8.544336319        35.689018250
    25.370101929        19.529912949         1.717552304
    27.484275818        20.750532150        15.268179893
    25.370101929        19.529912949        18.703285217
    27.484275818        20.750532150        32.253913879
    67.653602600         9.764956474        32.253913879
    65.539428711         8.544336319        18.703285217
    23.255926132        15.868054390         1.717552304
    23.255926132        13.426815033        66.225379944
    21.141750336        12.206194878        52.674751282
    67.653602600        12.206194878        18.703285217
    21.141752243         9.764956474        15.268179893
    71.881958008        17.088672638        15.268179893
    19.027576447         8.544336319        18.703285217
    21.141752243         9.764956474        32.253913879
    69.767776489        15.868054390         1.717552304
    19.027576447         8.544336319        35.689018250
    21.141752243         9.764956474        49.239646912
    69.767776489        13.426815033        66.225379944
    67.653602600        12.206194878        52.674751282
    25.370101929        19.529912949        35.689018250
    19.027576447         8.544336319        52.674751282
    21.141750336        12.206194878         1.717552304
    23.255926132        13.426815033        15.268179893
    69.767776489        13.426815033        49.239646912
    67.653602600        12.206194878        35.689018250
    21.141750336        12.206194878        18.703285217
    23.255926132        13.426815033        32.253913879
    21.141750336        12.206194878        35.689018250
    23.255926132        13.426815033        49.239646912
    69.767776489        13.426815033        32.253913879
    21.141752243         9.764956474        66.225379944
    27.484275818        20.750532150        49.239646912
    25.370101929        19.529912949        52.674751282
    27.484275818        20.750532150        66.225379944
    29.598451614        26.853630066        52.674751282
    31.712625504        28.074249268        66.225379944
    31.712625504        30.515487671         1.717552304
    33.826801300        31.736108780        15.268179893
    63.425254822         2.441239119        66.225379944
    61.311073303         1.220619559        52.674751282
    31.712625504        30.515487671        18.703285217
    33.826801300        31.736108780        32.253913879
    31.712625504        30.515487671        35.689018250
    63.425251007         4.882478237         1.717552304
    33.826801300        31.736108780        49.239646912
    61.311073303         1.220619559        35.689018250
    31.712625504        30.515487671        52.674751282
    33.826801300        31.736108780        66.225379944
    63.425254822         2.441239119        32.253913879
    33.826801300        34.177345276         1.717552304
    35.940979004        35.397968292        15.268179893
    61.311073303         1.220619559        18.703285217
    33.826801300        34.177345276        18.703285217
    35.940979004        35.397968292        32.253913879
    63.425254822         2.441239119        49.239646912
    19.027576447         8.544336319         1.717552304
    65.539428711         6.103097439        15.268179893
    29.598451614        26.853630066        35.689018250
    67.653602600         9.764956474        15.268179893
    65.539428711         8.544336319         1.717552304
    27.484275818        23.191770554         1.717552304
    29.598451614        24.412389755        15.268179893
    27.484275818        23.191770554        18.703285217
    29.598451614        24.412389755        32.253913879
    65.539428711         6.103097439        66.225379944
    63.425251007         4.882478237        52.674751282
    27.484275818        23.191770554        35.689018250
    31.712625504        28.074249268        49.239646912
    29.598451614        24.412389755        49.239646912
    27.484275818        23.191770554        52.674751282
    29.598451614        24.412389755        66.225379944
    63.425251007         4.882478237        35.689018250
    29.598451614        26.853630066         1.717552304
    31.712625504        28.074249268        15.268179893
    65.539428711         6.103097439        32.253913879
    63.425251007         4.882478237        18.703285217
    29.598451614        26.853630066        18.703285217
    31.712625504        28.074249268        32.253913879
    65.539428711         6.103097439        49.239646912
    63.425254822         2.441239119        15.268179893
    69.767776489        15.868054390        18.703285217
    19.027576447         6.103097439        66.225379944
    78.224479675        28.074249268        32.253913879
    76.110298157        26.853630066        18.703285217
    35.940975189        45.162921906        35.689018250
    38.055152893        46.383541107        49.239646912
    35.940975189        45.162921906        52.674751282
    38.055152893        46.383541107        66.225379944
    78.224479675        28.074249268        15.268179893
    76.110298157        26.853630066         1.717552304
    38.055149078        48.824779510         1.717552304
    40.169326782        50.045402527        15.268179893
    38.055149078        48.824779510        18.703285217
    40.169326782        50.045402527        32.253913879
    76.110305786        24.412389755        66.225379944
    73.996124268        23.191770554        52.674751282
    38.055149078        48.824779510        35.689018250
    40.169326782        50.045402527        49.239646912
    76.110305786        24.412389755        49.239646912
    38.055149078        48.824779510        52.674751282
    40.169326782        50.045402527        66.225379944
    38.055152893        46.383541107        32.253913879
    35.940975189        45.162921906        18.703285217
    38.055152893        46.383541107        15.268179893
    35.940975189        45.162921906         1.717552304
    31.712625504        37.839202881        35.689018250
    33.826801300        39.059825897        49.239646912
    80.338653564        31.736108780        32.253913879
    78.224472046        30.515487671        18.703285217
    31.712625504        37.839202881        52.674751282
    33.826801300        39.059825897        66.225379944
    33.826801300        41.501064301         1.717552304
    35.940975189        42.721683502        15.268179893
    80.338653564        31.736108780        15.268179893
    73.996124268        23.191770554        35.689018250
    78.224472046        30.515487671         1.717552304
    35.940975189        42.721683502        32.253913879
    78.224479675        28.074249268        66.225379944
    33.826801300        41.501064301        35.689018250
    35.940975189        42.721683502        49.239646912
    76.110298157        26.853630066        52.674751282
    33.826801300        41.501064301        52.674751282
    35.940975189        42.721683502        66.225379944
    78.224479675        28.074249268        49.239646912
    76.110298157        26.853630066        35.689018250
    33.826801300        41.501064301        18.703285217
    40.169326782        52.486637115         1.717552304