GeSbTe (4_kooi)                         
   1.00000000000000     
     4.2283502105976769   -0.0000000000000002   -0.0000000000000000
     2.1141751052988478    3.6618586984749135    0.0000000000000000
    -0.0000000000000000    0.0000000000000001   16.9857320867953590
   Ge   Sb   Te
     2     2     5
Direct
  0.3333333333333357  0.3333333333333357  0.1011173523988217
  0.6666666666666643  0.6666666666666643  0.8988826476011641
  0.0000000000000000 -0.0000000000000000  0.3167475754521772
 -0.0000000000000000  0.0000000000000000  0.6832524245478168
  0.0000000000000000  0.0000000000000000 -0.0000000000000000
  0.6666666666666643  0.6666666666666643  0.1997486862332224
  0.3333333333333357  0.3333333333333357  0.4177150301609254
  0.6666666666666643  0.6666666666666643  0.5822849698390757
  0.3333333333333357  0.3333333333333357  0.8002513137667631
 
  0.00000000E+00  0.00000000E+00  0.00000000E+00
  0.00000000E+00  0.00000000E+00  0.00000000E+00
  0.00000000E+00  0.00000000E+00  0.00000000E+00
  0.00000000E+00  0.00000000E+00  0.00000000E+00
  0.00000000E+00  0.00000000E+00  0.00000000E+00
  0.00000000E+00  0.00000000E+00  0.00000000E+00
  0.00000000E+00  0.00000000E+00  0.00000000E+00
  0.00000000E+00  0.00000000E+00  0.00000000E+00
  0.00000000E+00  0.00000000E+00  0.00000000E+00
