GeSbTe (4_kooi)                         
   1.00000000000000     
     4.3125427007000310    0.0000000000000000    0.0000000000000000
     2.1562713503500159    3.7347715337113780    0.0000000000000000
     0.0000000000000000    0.0000000000000000   17.4875777964269297
   Ge   Sb   Te
     2     2     5
Direct
  0.3548102766753866  0.3548102766753866  0.0990470397262280
  0.6876311672614398  0.6876311672614398  0.9007610592519494
  0.0129620749541887  0.0129620749541887  0.3116120853006416
  0.0126501421379536  0.0126501421379607  0.6881659469583089
  0.0000000000000000  0.0000000000000000  0.0000000000000000
  0.6690139555859461  0.6690139555859461  0.1959111789947633
  0.3362248659566689  0.3362248659566689  0.4093412599994103
  0.6684791099757242  0.6684791099757242  0.5904319487144228
  0.3339291768190240  0.3339291768190240  0.8040031846774388

