# Variables
variable        T equal 300
variable        kB equal 8.61733034e-5

#### Prepare
units           metal
atom_style      atomic
boundary        p p p
newton          off

#box             tilt large
read_data       structure.in

mass            1 72.64
mass            2 121.76
mass            3 127.60

pair_style      nequip
pair_coeff      * * ../../../../../../../../../../frozen_model.pb Ge Sb Te
#pair_style      deepmd frozen_model.pb
#pair_coeff      * *

#velocity        all create 300.0 1031
compute         pe all pe/atom
#compute         2 all pressure thermo_temp

read_dump       init.dump 10001000 x y z vx vy vz box yes replace yes
#velocity        all zero linear
#velocity        all zero angular
#fix             1 all nve
fix             1 all nvt temp $T $T 1.00
#fix             1 all npt temp 100 100 1.0 iso 0 0 10.0

# Prepare
region          sink   block  0.0    3.007065  INF INF  INF INF
region          source block 36.064 39.071065  INF INF  INF INF
fix             sing   all heat 1 -1.0 region sink
fix             source all heat 1  1.0 region source

thermo_style    custom step temp etotal pe ke vol
thermo_modify   format float %.15g
thermo          100
log             pre-log.lammps

dump            1 all custom 100 pre-out.dump id element mass type x y z fx fy fz vx vy vz c_pe
dump_modify     1 element Ge Sb Te

timestep        0.01
run             5000
reset_timestep  0

# LTC calc
compute         ke all ke/atom
variable        temp atom c_ke/1.5/${kB}
compute         layers all chunk/atom bin/1d x lower 0.04166667 units reduced
fix             2 all ave/chunk 1 100 100 layers v_temp file tmp.profile

undump          1
dump            1 all custom 100 out.dump id element mass type x y z fx fy fz vx vy vz c_pe
dump_modify     1 element Ge Sb Te
thermo          100
log             log.lammps

timestep        0.01
run             100000
