supercell-16x18x4
1.0
       67.7422561646         0.0000000000         0.0000000000
        0.0000000000        65.9998282658         0.0000000000
        0.0000000000         0.0000000000        67.2843246460
   Ge   Sb   Te
 2304 2304 5760
Cartesian
     2.116945505         1.222218990         1.700133920
    23.286399841        13.444408417        15.120947838
    69.859199524        15.888847351        18.521215439
    44.455856323        20.777721405        15.120947838
    42.338909149        19.555503845         1.700133920
    84.677818298        63.555389404        18.521215439
    86.794769287        64.777603149        31.942028046
    21.169454575        12.222188950        18.521215439
    23.286399841        13.444408417        31.942028046
    42.338909149        17.111064911        65.584190369
    40.221965790        15.888847351        52.163375854
    71.976150513        17.111064911        15.120947838
    69.859199524        15.888847351         1.700133920
    21.169454575        12.222188950        35.342296600
    23.286399841        13.444408417        48.763111115
    42.338909149        17.111064911        48.763111115
    40.221965790        15.888847351        35.342296600
    84.677818298        63.555389404        35.342296600
    21.169454575        12.222188950         1.700133920
    71.976150513        17.111064911        31.942028046
    86.794769287        64.777603149        15.120947838
    42.338909149        19.555503845        18.521215439
    71.976150513        17.111064911        65.584190369
    69.859199524        15.888847351        52.163375854
    19.052509308         8.555532455        18.521215439
    21.169454575         9.777751923        31.942028046
    44.455856323        20.777721405        65.584190369
    42.338909149        19.555503845        52.163375854
    82.560874939        59.888729095        52.163375854
    84.677818298        61.110946655        65.584190369
    86.794769287        64.777603149        48.763111115
    19.052509308         8.555532455        35.342296600
    44.455856323        20.777721405        48.763111115
    71.976150513        17.111064911        48.763111115
    69.859199524        15.888847351        35.342296600
    42.338909149        19.555503845        35.342296600
    84.677818298        63.555389404         1.700133920
    19.052509308         8.555532455        52.163375854
    21.169454575         9.777751923        65.584190369
    44.455856323        20.777721405        31.942028046
    21.169454575         9.777751923        48.763111115
    44.455856323        23.222160339         1.700133920
    21.169454575        12.222188950        52.163375854
    42.338909149        17.111064911        31.942028046
    25.403345108        17.111064911        65.584190369
    69.859199524        13.444408417        31.942028046
    67.742256165        12.222188950        18.521215439
    40.221965790        13.444408417        31.942028046
    25.403345108        19.555503845         1.700133920
    27.520290375        20.777721405        15.120947838
    38.105018616        12.222188950        18.521215439
    52.923637390         1.222218990        18.521215439
    40.221965790        13.444408417        15.120947838
    38.105018616        12.222188950         1.700133920
    69.859199524        13.444408417        15.120947838
    25.403345108        19.555503845        18.521215439
    27.520290375        20.777721405        31.942028046
    55.040584564         2.444437981        31.942028046
    67.742256165        12.222188950         1.700133920
    38.105018616         9.777751923        65.584190369
    25.403345108        19.555503845        35.342296600
    23.286399841        15.888847351        52.163375854
    55.040584564         2.444437981        15.120947838
    52.923637390         1.222218990         1.700133920
    38.105018616        12.222188950        35.342296600
    69.859199524        13.444408417        65.584190369
    67.742256165        12.222188950        52.163375854
    40.221965790        15.888847351        18.521215439
    23.286399841        15.888847351         1.700133920
    25.403345108        17.111064911        15.120947838
    42.338909149        17.111064911        15.120947838
    40.221965790        15.888847351         1.700133920
    84.677818298        63.555389404        52.163375854
    23.286399841        13.444408417        65.584190369
    86.794769287        64.777603149        65.584190369
    25.403345108        17.111064911        31.942028046
    69.859199524        13.444408417        48.763111115
    67.742256165        12.222188950        35.342296600
    40.221965790        13.444408417        65.584190369
    23.286399841        15.888847351        35.342296600
    25.403345108        17.111064911        48.763111115
    38.105018616        12.222188950        52.163375854
    40.221965790        13.444408417        48.763111115
    23.286399841        15.888847351        18.521215439
    27.520290375        20.777721405        48.763111115
    46.572799683        24.444377899        15.120947838
    19.052509308         8.555532455         1.700133920
    80.443931580        56.222076416        18.521215439
    46.572799683        63.555389404        35.342296600
    48.689746857        64.777603149        48.763111115
    82.560874939        57.444293976        31.942028046
    50.806694031        31.777694702        31.942028046
    48.689746857        30.555473328        18.521215439
    46.572799683        63.555389404        52.163375854
    48.689746857        64.777603149        65.584190369
    50.806694031        31.777694702        15.120947838
    76.210037231        24.444377899        15.120947838
    74.093086243        23.222160339         1.700133920
    48.689746857        30.555473328         1.700133920
    80.443931580        56.222076416        35.342296600
    14.818617821         1.222218990         1.700133920
    16.935564041         2.444437981        15.120947838
    82.560874939        57.444293976        48.763111115
    48.689746857        28.111038208        65.584190369
    74.093086243        23.222160339        18.521215439
    76.210037231        24.444377899        31.942028046
    48.689746857        30.555473328        35.342296600
    50.806694031        31.777694702        48.763111115
    46.572799683        61.110946655        48.763111115
    74.093086243        23.222160339        52.163375854
    52.923637390        35.444347382        31.942028046
    50.806690216        34.222129822        18.521215439
    44.455856323        59.888729095        52.163375854
    46.572799683        61.110946655        65.584190369
    52.923637390        35.444347382        15.120947838
    50.806690216        34.222129822         1.700133920
    46.572799683        26.888816833        52.163375854
    80.443931580        56.222076416         1.700133920
    74.093086243        23.222160339        35.342296600
    46.572799683        63.555389404         1.700133920
    48.689746857        64.777603149        15.120947838
    82.560874939        57.444293976        15.120947838
    50.806694031        31.777694702        65.584190369
    48.689746857        30.555473328        52.163375854
    46.572799683        63.555389404        18.521215439
    48.689746857        64.777603149        31.942028046
    76.210037231        24.444377899        48.763111115
    21.169454575         9.777751923        15.120947838
    14.818617821         1.222218990        18.521215439
    80.443931580        56.222076416        52.163375854
    19.052509308         6.111094475        31.942028046
    46.572799683        24.444377899        65.584190369
    44.455856323        23.222160339        52.163375854
    82.560874939        59.888729095        18.521215439
    84.677818298        61.110946655        31.942028046
    16.935564041         4.888875961        35.342296600
    19.052509308         6.111094475        48.763111115
    46.572799683        24.444377899        48.763111115
    44.455856323        23.222160339        35.342296600
    74.093093872        20.777721405        15.120947838
    71.976142883        19.555503845         1.700133920
    16.935564041         4.888875961        52.163375854
    19.052509308         6.111094475        65.584190369
    46.572799683        24.444377899        31.942028046
    44.455856323        23.222160339        18.521215439
    82.560874939        59.888729095        35.342296600
    84.677818298        61.110946655        48.763111115
    16.935564041         4.888875961        18.521215439
    71.976142883        19.555503845        18.521215439
    74.093093872        20.777721405        31.942028046
    46.572799683        26.888816833         1.700133920
    74.093093872        20.777721405        65.584190369
    71.976142883        19.555503845        52.163375854
    48.689746857        28.111038208        48.763111115
    46.572799683        26.888816833        35.342296600
    14.818617821         1.222218990        35.342296600
    16.935564041         2.444437981        48.763111115
    82.560874939        57.444293976        65.584190369
    48.689746857        28.111038208        31.942028046
    16.935564041         2.444437981        31.942028046
    74.093093872        20.777721405        48.763111115
    16.935564041         2.444437981        65.584190369
    46.572799683        26.888816833        18.521215439
    82.560874939        59.888729095         1.700133920
    71.976142883        19.555503845        35.342296600
    84.677818298        61.110946655        15.120947838
    48.689746857        28.111038208        15.120947838
    16.935564041         4.888875961         1.700133920
    19.052509308         6.111094475        15.120947838
    14.818617821         1.222218990        52.163375854
    44.455856323        59.888729095        35.342296600
    35.988075256         8.555532455        52.163375854
    55.040584564         2.444437981        48.763111115
    63.508365631         2.444437981        31.942028046
    61.391418457         1.222218990        18.521215439
    35.988071442        37.888790131        18.521215439
    38.105018616        39.111007690        31.942028046
    63.508361816        61.110946655        31.942028046
    61.391418457        59.888729095        18.521215439
    59.274471283        12.222188950         1.700133920
    61.391422272        13.444408417        15.120947838
    63.508361816        61.110946655        15.120947838
    35.988071442        37.888790131        35.342296600
    38.105018616        39.111007690        48.763111115
    61.391418457        59.888729095         1.700133920
    63.508365631         2.444437981        15.120947838
    61.391418457         1.222218990         1.700133920
    35.988071442        37.888790131        52.163375854
    38.105018616        39.111007690        65.584190369
    61.391418457        57.444293976        65.584190369
    59.274475098         9.777751923        65.584190369
    38.105018616        39.111007690        15.120947838
    35.988071442        37.888790131         1.700133920
    61.391418457        59.888729095        35.342296600
    33.871128082        34.222129822        18.521215439
    35.988071442        35.444347382        31.942028046
    63.508365631         2.444437981        65.584190369
    61.391418457         1.222218990        52.163375854
    65.625312805        64.777603149        15.120947838
    63.508365631        63.555389404         1.700133920
    57.157527924         8.555532455        35.342296600
    33.871128082        34.222129822        35.342296600
    59.274475098        56.222076416        52.163375854
    35.988071442        35.444347382        48.763111115
    63.508361816        61.110946655        65.584190369
    63.508365631         2.444437981        48.763111115
    33.871128082        34.222129822        52.163375854
    35.988071442        35.444347382        65.584190369
    61.391418457        59.888729095        52.163375854
    57.157527924         8.555532455        52.163375854
    61.391418457         1.222218990        35.342296600
    63.508361816        61.110946655        48.763111115
    59.274475098         9.777751923        48.763111115
    63.508365631        63.555389404        18.521215439
    59.274471283        12.222188950        18.521215439
    38.105018616        41.555442810         1.700133920
    61.391422272        13.444408417        65.584190369
    95.262550354        64.777603149        31.942028046
    40.221965790        45.222103119         1.700133920
    42.338909149        46.444320679        15.120947838
    93.145599365        63.555389404        18.521215439
    59.274471283        53.777633667        48.763111115
    57.157527924        52.555416107        35.342296600
    61.391418457        15.888847351         1.700133920
    40.221965790        45.222103119        18.521215439
    42.338909149        46.444320679        31.942028046
    59.274471283        53.777633667        31.942028046
    57.157527924        52.555416107        18.521215439
    63.508365631        17.111064911        15.120947838
    95.262550354        64.777603149        15.120947838
    93.145599365        63.555389404         1.700133920
    40.221965790        45.222103119        35.342296600
    42.338909149        46.444320679        48.763111115
    59.274471283        12.222188950        52.163375854
    57.157527924        52.555416107        52.163375854
    59.274471283        53.777633667        65.584190369
    40.221961975        42.777660370        65.584190369
    40.221961975        42.777660370        15.120947838
    61.391418457        57.444293976        48.763111115
    59.274475098        56.222076416        35.342296600
    95.262550354        64.777603149        65.584190369
    93.145599365        63.555389404        52.163375854
    38.105018616        41.555442810        18.521215439
    40.221961975        42.777660370        31.942028046
    61.391418457        57.444293976        31.942028046
    61.391422272        13.444408417        31.942028046
    59.274475098        56.222076416        18.521215439
    61.391422272        13.444408417        48.763111115
    38.105018616        41.555442810        35.342296600
    40.221961975        42.777660370        48.763111115
    61.391418457        57.444293976        15.120947838
    95.262550354        64.777603149        48.763111115
    93.145599365        63.555389404        35.342296600
    59.274475098        56.222076416         1.700133920
    38.105018616        41.555442810        52.163375854
    59.274471283        12.222188950        35.342296600
    52.923637390         1.222218990        35.342296600
    65.625312805        64.777603149        31.942028046
    35.988071442        35.444347382        15.120947838
    55.040580750         4.888875961         1.700133920
    57.157531738         6.111094475        15.120947838
    67.742256165         9.777751923        31.942028046
    65.625305176         8.555532455        18.521215439
    27.520290375        23.222160339        52.163375854
    29.637235641        24.444377899        65.584190369
    35.988075256         6.111094475        48.763111115
    33.871128082         4.888875961        35.342296600
    35.988075256         6.111094475        31.942028046
    29.637235641        26.888816833         1.700133920
    31.754182816        28.111038208        15.120947838
    33.871128082         4.888875961        18.521215439
    55.040580750         4.888875961        18.521215439
    67.742256165         9.777751923        15.120947838
    65.625305176         8.555532455         1.700133920
    57.157531738         6.111094475        31.942028046
    29.637235641        26.888816833        18.521215439
    33.871128082         4.888875961        52.163375854
    29.637235641        24.444377899        48.763111115
    27.520290375        23.222160339        35.342296600
    35.988075256         6.111094475        65.584190369
    67.742256165         9.777751923        65.584190369
    65.625305176         8.555532455        52.163375854
    25.403345108        19.555503845        52.163375854
    27.520290375        20.777721405        65.584190369
    38.105018616         9.777751923        48.763111115
    35.988075256         8.555532455        35.342296600
    38.105018616         9.777751923        31.942028046
    27.520290375        23.222160339         1.700133920
    31.754182816        28.111038208        31.942028046
    29.637235641        24.444377899        15.120947838
    52.923637390         1.222218990        52.163375854
    55.040584564         2.444437981        65.584190369
    67.742256165         9.777751923        48.763111115
    65.625305176         8.555532455        35.342296600
    27.520290375        23.222160339        18.521215439
    29.637235641        24.444377899        31.942028046
    38.105018616         9.777751923        15.120947838
    35.988075256         8.555532455         1.700133920
    35.988075256         8.555532455        18.521215439
    59.274475098         9.777751923        31.942028046
    35.988075256         6.111094475        15.120947838
    55.040580750         4.888875961        35.342296600
    31.754182816         1.222218990         1.700133920
    65.625312805         6.111094475        31.942028046
    63.508361816         4.888875961        18.521215439
    57.157527924         8.555532455         1.700133920
    31.754180908        30.555473328        35.342296600
    33.871128082        31.777694702        48.763111115
    59.274475098         9.777751923        15.120947838
    65.625312805        64.777603149        65.584190369
    63.508365631        63.555389404        52.163375854
    31.754180908        30.555473328        52.163375854
    33.871128082        31.777694702        65.584190369
    65.625312805        64.777603149        48.763111115
    65.625312805         6.111094475        15.120947838
    63.508361816         4.888875961         1.700133920
    63.508365631        63.555389404        35.342296600
    57.157527924         8.555532455        18.521215439
    33.871128082        34.222129822         1.700133920
    33.871128082         2.444437981        15.120947838
    33.871128082        31.777694702        31.942028046
    31.754180908        30.555473328        18.521215439
    31.754182816         1.222218990        18.521215439
    65.625312805         6.111094475        65.584190369
    29.637235641        26.888816833        35.342296600
    31.754182816        28.111038208        48.763111115
    33.871128082         2.444437981        65.584190369
    63.508361816         4.888875961        52.163375854
    31.754182816         1.222218990        52.163375854
    57.157531738         6.111094475        48.763111115
    29.637235641        26.888816833        52.163375854
    33.871128082         4.888875961         1.700133920
    31.754182816        28.111038208        65.584190369
    31.754182816         1.222218990        35.342296600
    55.040580750         4.888875961        52.163375854
    65.625312805         6.111094475        48.763111115
    63.508361816         4.888875961        35.342296600
    31.754180908        30.555473328         1.700133920
    33.871128082        31.777694702        15.120947838
    57.157531738         6.111094475        65.584190369
    33.871128082         2.444437981        31.942028046
    33.871128082         2.444437981        48.763111115
    59.274471283        53.777633667        15.120947838
    76.210037231        24.444377899        65.584190369
    78.326980591        52.555416107        52.163375854
    38.105018616         2.444437981        48.763111115
    35.988075256         1.222218990        35.342296600
    67.742256165        34.222129822        52.163375854
    69.859199524        35.444347382        65.584190369
    25.403345108        26.888816833         1.700133920
    27.520292282        28.111038208        15.120947838
    38.105018616         2.444437981        31.942028046
    88.911712646        46.444320679        15.120947838
    86.794761658        45.222103119         1.700133920
    35.988075256         1.222218990        18.521215439
    25.403345108        26.888816833        18.521215439
    27.520292282        28.111038208        31.942028046
    38.105018616         2.444437981        15.120947838
    35.988075256         1.222218990         1.700133920
    69.859199524        37.888790131         1.700133920
    71.976150513        39.111007690        15.120947838
    86.794761658        42.777660370        65.584190369
    25.403345108        24.444377899        65.584190369
    23.286399841        23.222160339        52.163375854
    86.794761658        45.222103119        18.521215439
    88.911712646        46.444320679        31.942028046
    40.221965790         6.111094475        31.942028046
    23.286399841        23.222160339         1.700133920
    25.403345108        24.444377899        15.120947838
    38.105018616         4.888875961        18.521215439
    67.742256165        34.222129822        18.521215439
    69.859199524        35.444347382        31.942028046
    88.911712646        46.444320679        48.763111115
    86.794761658        45.222103119        35.342296600
    25.403345108        26.888816833        35.342296600
    23.286399841        23.222160339        18.521215439
    40.221965790         6.111094475        15.120947838
    38.105018616         4.888875961         1.700133920
    67.742256165        34.222129822        35.342296600
    23.286399841        23.222160339        35.342296600
    25.403345108        24.444377899        48.763111115
    38.105018616         2.444437981        65.584190369
    35.988075256         1.222218990        52.163375854
    69.859199524        35.444347382        48.763111115
    25.403345108        24.444377899        31.942028046
    38.105018616         4.888875961        35.342296600
    27.520292282        28.111038208        48.763111115
    69.859199524        64.777603149        65.584190369
    71.976150513        39.111007690        48.763111115
    67.742256165        61.110946655        65.584190369
    65.625312805        59.888729095        52.163375854
    27.520290375        30.555473328        52.163375854
    29.637237549        31.777694702        65.584190369
    69.859199524        37.888790131        52.163375854
    86.794761658        42.777660370        15.120947838
    84.677818298        41.555442810         1.700133920
    67.742256165        61.110946655        48.763111115
    65.625312805        59.888729095        35.342296600
    29.637235641        34.222129822         1.700133920
    31.754182816        35.444347382        15.120947838
    71.976150513        39.111007690        65.584190369
    67.742256165        61.110946655        31.942028046
    65.625312805        59.888729095        18.521215439
    29.637235641        34.222129822        18.521215439
    31.754182816        35.444347382        31.942028046
    29.637237549        31.777694702        48.763111115
    27.520290375        30.555473328        35.342296600
    69.859199524        37.888790131        35.342296600
    84.677818298        41.555442810        18.521215439
    67.742256165        63.555389404        52.163375854
    25.403345108        26.888816833        52.163375854
    27.520292282        28.111038208        65.584190369
    69.859199524        64.777603149        48.763111115
    67.742256165        63.555389404        35.342296600
    69.859199524        37.888790131        18.521215439
    86.794761658        42.777660370        48.763111115
    84.677818298        41.555442810        35.342296600
    84.677818298        41.555442810        52.163375854
    27.520290375        30.555473328         1.700133920
    71.976150513        39.111007690        31.942028046
    69.859199524        64.777603149        31.942028046
    67.742256165        63.555389404        18.521215439
    27.520290375        30.555473328        18.521215439
    29.637237549        31.777694702        31.942028046
    69.859199524        64.777603149        15.120947838
    67.742256165        63.555389404         1.700133920
    86.794761658        42.777660370        31.942028046
    29.637237549        31.777694702        15.120947838
    71.976142883        41.555442810         1.700133920
    40.221965790         6.111094475        48.763111115
    21.169454575        19.555503845        52.163375854
    16.935564041        12.222188950        18.521215439
    19.052509308        13.444408417        31.942028046
    44.455856323        13.444408417        65.584190369
    93.145599365        53.777633667        15.120947838
    91.028656006        52.555416107         1.700133920
    16.935564041        12.222188950        35.342296600
    19.052509308        13.444408417        48.763111115
    42.338909149        12.222188950        52.163375854
    44.455856323        13.444408417        48.763111115
    42.338909149        12.222188950        35.342296600
    65.625305176        30.555473328         1.700133920
    67.742256165        31.777694702        15.120947838
    16.935564041        12.222188950        52.163375854
    19.052509308        13.444408417        65.584190369
    91.028656006        50.110980988        65.584190369
    88.911705017        48.888755798        52.163375854
    44.455856323        13.444408417        31.942028046
    65.625312805        28.111038208        65.584190369
    63.508361816        26.888816833        52.163375854
    44.455856323        15.888847351         1.700133920
    46.572799683        17.111064911        15.120947838
    46.572799683        17.111064911        65.584190369
    44.455856323        15.888847351        52.163375854
    14.818617821         8.555532455        35.342296600
    16.935564041         9.777751923        48.763111115
    46.572799683        17.111064911        48.763111115
    93.145599365        53.777633667        48.763111115
    91.028656006        52.555416107        35.342296600
    44.455856323        15.888847351        35.342296600
    19.052509308        15.888847351         1.700133920
    63.508361816        26.888816833        35.342296600
    14.818617821         8.555532455        52.163375854
    16.935564041         9.777751923        65.584190369
    46.572799683        17.111064911        31.942028046
    44.455856323        15.888847351        18.521215439
    93.145599365        53.777633667        31.942028046
    16.935564041        12.222188950         1.700133920
    19.052509308        13.444408417        15.120947838
    91.028656006        52.555416107        18.521215439
    65.625312805        28.111038208        48.763111115
    23.286399841        20.777721405        65.584190369
    21.169454575        17.111064911        15.120947838
    65.625305176        30.555473328        18.521215439
    40.221965790         8.555532455        18.521215439
    65.625305176        30.555473328        52.163375854
    67.742256165        31.777694702        65.584190369
    91.028656006        50.110980988        15.120947838
    21.169454575        19.555503845        18.521215439
    23.286399841        20.777721405        31.942028046
    42.338909149         9.777751923        15.120947838
    40.221965790         8.555532455         1.700133920
    88.911705017        48.888755798         1.700133920
    40.221965790         6.111094475        65.584190369
    21.169454575        19.555503845        35.342296600
    23.286399841        20.777721405        48.763111115
    38.105018616         4.888875961        52.163375854
    67.742256165        34.222129822         1.700133920
    69.859199524        35.444347382        15.120947838
    88.911712646        46.444320679        65.584190369
    86.794761658        45.222103119        52.163375854
    23.286399841        20.777721405        15.120947838
    21.169454575        19.555503845         1.700133920
    42.338909149         9.777751923        31.942028046
    88.911705017        48.888755798        18.521215439
    44.455856323        13.444408417        15.120947838
    42.338909149        12.222188950         1.700133920
    67.742256165        31.777694702        31.942028046
    19.052509308        15.888847351        18.521215439
    21.169454575        17.111064911        31.942028046
    91.028656006        50.110980988        48.763111115
    88.911705017        48.888755798        35.342296600
    42.338909149         9.777751923        65.584190369
    42.338909149        12.222188950        18.521215439
    19.052509308        15.888847351        35.342296600
    40.221965790         8.555532455        52.163375854
    65.625305176        30.555473328        35.342296600
    67.742256165        31.777694702        48.763111115
    42.338909149         9.777751923        48.763111115
    40.221965790         8.555532455        35.342296600
    19.052509308        15.888847351        52.163375854
    21.169454575        17.111064911        65.584190369
    91.028656006        50.110980988        31.942028046
    21.169454575        17.111064911        48.763111115
    80.443931580        53.777633667        65.584190369
    74.093093872        42.777660370        15.120947838
    82.560874939        37.888790131        52.163375854
    57.157527924        42.777660370        65.584190369
    40.221965790        52.555416107         1.700133920
    42.338909149        53.777633667        15.120947838
    55.040580750        41.555442810        52.163375854