supercell-16x32x4
1.0
       69.0006866455         0.0000000000         0.0000000000
        0.0000000000       119.5126996212         0.0000000000
        0.0000000000         0.0000000000        69.9503097534
   Ge   Sb   Te
 4096 4096 10240
Cartesian
     2.295201778         1.325135469         1.732092857
    51.886131287        32.446323395        68.214859009
    28.167142868        21.242004395        68.214859009
    26.014186859        19.998994827        54.194824219
    77.764701843        27.468538284        36.707244873
    79.917655945        28.711549759        50.727283478
   116.574272156       114.611305237        50.727283478
    28.167142868        21.242004395        50.727283478
    26.014186859        19.998994827        36.707244873
   114.421310425       113.368293762        36.707244873
    51.889446259        34.938083649         1.732092857
    54.042400360        36.181095123        15.752128601
    51.889446259        34.938083649        19.219671249
    54.042400360        36.181095123        33.239704132
    28.167142868        21.242004395        33.239704132
    26.014186859        19.998994827        19.219671249
    49.733173370        31.203311920        54.194824219
    77.764701843        27.468538284        54.194824219
   114.421310425       113.368293762        54.194824219
    79.917655945        28.711549759        33.239704132
    30.323413849        24.976778030        50.727283478
    28.170457840        23.733766556        36.707244873
    77.764701843        27.468538284         1.732092857
    79.917655945        28.711549759        15.752128601
   118.730537415       118.346076965        15.752128601
   116.577583313       117.103065491         1.732092857
    49.733173370        31.203311920        19.219671249
    51.886131287        32.446323395        33.239704132
    30.323413849        24.976778030        33.239704132
    28.170457840        23.733766556        19.219671249
    77.764701843        27.468538284        19.219671249
   116.574272156       114.611305237        68.214859009
    49.733173370        31.203311920        36.707244873
    30.323413849        24.976778030        15.752128601
    28.170457840        23.733766556         1.732092857
    51.886131287        32.446323395        50.727283478
    51.886131287        32.446323395        15.752128601
    79.917655945        28.711549759        68.214859009
    28.167142868        21.242004395        15.752128601
    82.073928833        32.446323395        33.239704132
    54.045715332        38.672855377        19.219671249
    56.198673248        39.915866852        33.239704132
   114.417999268       110.876533508        68.214859009
    26.010871887        17.507232666        15.752128601
    23.857915878        16.264223099         1.732092857
   112.265045166       109.633522034        54.194824219
    54.045715332        38.672855377        36.707244873
    56.198673248        39.915866852        50.727283478
    79.920974731        31.203311920        36.707244873
    23.854600906        13.772460938        68.214859009
    21.701642990        12.529451370        54.194824219
    82.073928833        32.446323395        50.727283478
   114.417999268       110.876533508        50.727283478
    54.045715332        38.672855377        54.194824219
    79.920974731        31.203311920        19.219671249
   116.574272156       114.611305237        33.239704132
    23.857915878        16.264223099        19.219671249
    56.198673248        39.915866852        15.752128601
    26.014186859        19.998994827         1.732092857
   114.421310425       113.368293762        19.219671249
    51.889446259        34.938083649        36.707244873
    54.042400360        36.181095123        50.727283478
    51.889446259        34.938083649        54.194824219
    26.010871887        17.507232666        68.214859009
    23.857915878        16.264223099        54.194824219
    54.042400360        36.181095123        68.214859009
    79.920974731        31.203311920         1.732092857
    82.073928833        32.446323395        15.752128601
   116.574272156       114.611305237        15.752128601
    26.010871887        17.507232666        50.727283478
    23.857915878        16.264223099        36.707244873
   114.421310425       113.368293762         1.732092857
    54.045715332        38.672855377         1.732092857
    26.010871887        17.507232666        33.239704132
    49.733173370        31.203311920         1.732092857
    28.170457840        23.733766556        54.194824219
    30.323413849        24.976778030        68.214859009
    43.264358521        19.998994827        54.194824219
    45.417316437        21.242004395        68.214859009
    56.198677063         2.568145752        33.239704132
    54.045719147         1.325135469        19.219671249
    34.635955811        32.446323395        68.214859009
    32.483001709        31.203311920        54.194824219
    73.452163696        19.998994827        54.194824219
    75.605117798        21.242004395        68.214859009
    45.420631409        23.733766556         1.732092857
    47.573585510        24.976778030        15.752128601
    34.635955811        32.446323395        50.727283478
    32.483001709        31.203311920        36.707244873
    56.198677063         2.568145752        15.752128601
    45.420631409        23.733766556        19.219671249
    47.573585510        24.976778030        33.239704132
    34.639270782        34.938083649         1.732092857
    75.608436584        23.733766556         1.732092857
    36.792228699        36.181095123        15.752128601
    75.605117798        21.242004395        50.727283478
    34.639270782        34.938083649        54.194824219
    43.264358521        19.998994827         1.732092857
    45.417316437        21.242004395        15.752128601
    73.452163696        19.998994827        19.219671249
    75.605117798        21.242004395        33.239704132
    36.792228699        36.181095123        50.727283478
    34.639270782        34.938083649        36.707244873
    43.264358521        19.998994827        19.219671249
    45.417316437        21.242004395        33.239704132
    56.198677063         2.568145752        50.727283478
    54.045719147         1.325135469        36.707244873
    36.792228699        36.181095123        33.239704132
    34.639270782        34.938083649        19.219671249
    43.264358521        19.998994827        36.707244873
    73.452163696        19.998994827        36.707244873
    45.417316437        21.242004395        50.727283478
    34.635955811        32.446323395        33.239704132
    32.483001709        31.203311920        19.219671249
    77.761390686        24.976778030        15.752128601
   116.577583313       117.103065491        36.707244873
    47.576900482        27.468538284        19.219671249
    49.729858398        28.711549759        33.239704132
    32.479686737        28.711549759        33.239704132
    30.326728821        27.468538284        19.219671249
    47.576900482        27.468538284        36.707244873
    49.729858398        28.711549759        50.727283478
    32.479686737        28.711549759        15.752128601
    30.326728821        27.468538284         1.732092857
    75.608436584        23.733766556        54.194824219
    77.761390686        24.976778030        68.214859009
   118.730537415       118.346076965        33.239704132
   116.577583313       117.103065491        19.219671249
    47.576900482        27.468538284        54.194824219
    49.729858398        28.711549759        68.214859009
    77.761390686        24.976778030        50.727283478
    75.608436584        23.733766556        36.707244873
   118.730537415       118.346076965        50.727283478
    30.326728821        27.468538284        36.707244873
    54.045719147         1.325135469         1.732092857
    45.420631409        23.733766556        36.707244873
    47.573585510        24.976778030        50.727283478
    34.635955811        32.446323395        15.752128601
    32.483001709        31.203311920         1.732092857
   118.730537415       118.346076965        68.214859009
   116.577583313       117.103065491        54.194824219
    56.198673248        39.915866852        68.214859009
    75.608436584        23.733766556        19.219671249
    45.420631409        23.733766556        54.194824219
    47.573585510        24.976778030        68.214859009
    32.479686737        28.711549759        68.214859009
    30.326728821        27.468538284        54.194824219
    47.576900482        27.468538284         1.732092857
    49.729858398        28.711549759        15.752128601
    32.479686737        28.711549759        50.727283478
    77.761390686        24.976778030        33.239704132
    36.792228699        36.181095123        68.214859009
    23.854600906        13.772460938        50.727283478
   112.265045166       109.633522034        36.707244873
    62.670799255        53.611946106        54.194824219
    64.823760986        54.854953766        68.214859009
    86.389793396        42.407627106         1.732092857
   110.105453491       103.406990051        33.239704132
    79.917655945       118.346076965        33.239704132
    77.764694214       117.103065491        19.219671249
    88.542747498        43.650638580        15.752128601
   107.952499390       102.163978577        19.219671249
    64.827072144        57.346717834         1.732092857
    66.980026245        58.589725494        15.752128601
    79.917655945       118.346076965        15.752128601
    77.764694214       117.103065491         1.732092857
   110.105453491       103.406990051        15.752128601
    64.827072144        57.346717834        19.219671249
    86.389793396        42.407627106        19.219671249
    77.764694214       117.103065491        36.707244873
    88.542747498        43.650638580        33.239704132
    79.917655945       118.346076965        50.727283478
    62.670799255        53.611946106        36.707244873
    15.232830048         1.325135469        19.219671249
    62.670799255        53.611946106         1.732092857
    84.233520508        38.672855377        36.707244873
    86.386474609        39.915866852        50.727283478
    64.823760986        54.854953766        15.752128601
    17.385786057         2.568145752        15.752128601
    15.232830048         1.325135469         1.732092857
    62.670799255        53.611946106        19.219671249
    64.823760986        54.854953766        33.239704132
   110.105453491       103.406990051        50.727283478
   107.952499390       102.163978577        36.707244873
    79.917655945       118.346076965        68.214859009
    77.764694214       117.103065491        54.194824219
    84.233520508        38.672855377        54.194824219
    86.386474609        39.915866852        68.214859009
    64.823760986        54.854953766        50.727283478
    17.385786057         2.568145752        33.239704132
    66.980026245        58.589725494        33.239704132
    75.608421326       113.368293762        54.194824219
   107.949180603        99.672218323        50.727283478
   105.796226501        98.429206848        36.707244873
    66.983345032        61.081489563        19.219671249
    69.136299133        62.324497223        33.239704132
    75.605110168       110.876533508        68.214859009
    73.452156067       109.633522034        54.194824219
    66.983345032        61.081489563        36.707244873
    69.136299133        62.324497223        50.727283478
    75.605110168       110.876533508        50.727283478
    73.452156067       109.633522034        36.707244873
    88.546058655        46.142398834         1.732092857
    90.699012756        47.385410309        15.752128601
   107.949180603        99.672218323        33.239704132
   105.796226501        98.429206848        19.219671249
    66.983345032        61.081489563        54.194824219
    88.542747498        43.650638580        68.214859009
    77.761383057       114.611305237        68.214859009
    86.389793396        42.407627106        54.194824219
    77.761383057       114.611305237        15.752128601
   107.952499390       102.163978577         1.732092857
    64.827072144        57.346717834        36.707244873
    66.980026245        58.589725494        50.727283478
    77.761383057       114.611305237        50.727283478
    75.608421326       113.368293762        36.707244873
   107.949180603        99.672218323        68.214859009
    86.389793396        42.407627106        36.707244873
    88.542747498        43.650638580        50.727283478
   105.796226501        98.429206848        54.194824219
    64.827072144        57.346717834        54.194824219
    66.980026245        58.589725494        68.214859009
    77.761383057       114.611305237        33.239704132
    75.608421326       113.368293762        19.219671249
    66.983345032        61.081489563         1.732092857
    69.136299133        62.324497223        15.752128601
    75.608421326       113.368293762         1.732092857
   107.952499390       102.163978577        54.194824219
   110.105453491       103.406990051        68.214859009
    62.667488098        51.120182037        68.214859009
   112.265045166       109.633522034         1.732092857
    56.201988220        42.407627106        54.194824219
    58.354942322        43.650638580        68.214859009
    21.698329926        10.037689209        50.727283478
    19.545372009         8.794679642        36.707244873
    82.077247620        34.938083649        19.219671249
    84.230201721        36.181095123        33.239704132
    58.358257294        46.142398834         1.732092857
    60.511215210        47.385410309        15.752128601
    21.698329926        10.037689209        33.239704132
    19.545372009         8.794679642        19.219671249
   112.261726379       107.141761780        68.214859009
   110.108772278       105.898750305        54.194824219
    58.358257294        46.142398834        19.219671249
    60.511215210        47.385410309        33.239704132
   114.417999268       110.876533508        15.752128601
    21.698329926        10.037689209        15.752128601
    19.545372009         8.794679642        54.194824219
    58.354942322        43.650638580        50.727283478
    56.201988220        42.407627106         1.732092857
    58.354942322        43.650638580        15.752128601
    79.920974731        31.203311920        54.194824219
    82.073928833        32.446323395        68.214859009
    23.854600906        13.772460938        33.239704132
    21.701642990        12.529451370        19.219671249
   114.417999268       110.876533508        33.239704132
   112.265045166       109.633522034        19.219671249
    56.201988220        42.407627106        19.219671249
    58.354942322        43.650638580        33.239704132
    23.854600906        13.772460938        15.752128601
    21.701642990        12.529451370         1.732092857
    56.201988220        42.407627106        36.707244873
    82.077247620        34.938083649         1.732092857
    84.230201721        36.181095123        15.752128601
    21.698329926        10.037689209        68.214859009
    19.545372009         8.794679642         1.732092857
    82.077247620        34.938083649        36.707244873
    84.230201721        36.181095123        50.727283478
    60.514530182        49.877174377        19.219671249
    19.542058945         6.302917480        15.752128601
    17.389101028         5.059907436         1.732092857
    62.667488098        51.120182037        33.239704132
   112.261726379       107.141761780        15.752128601
   110.108772278       105.898750305         1.732092857
    17.385786057         2.568145752        68.214859009
    15.232830048         1.325135469        54.194824219
    60.514530182        49.877174377        36.707244873
    62.667488098        51.120182037        50.727283478
    84.233520508        38.672855377        19.219671249
    86.386474609        39.915866852        33.239704132
    60.514530182        49.877174377        54.194824219
    17.385786057         2.568145752        50.727283478
    15.232830048         1.325135469        36.707244873
   110.108772278       105.898750305        19.219671249
    86.386474609        39.915866852        15.752128601
    84.233520508        38.672855377         1.732092857
    62.667488098        51.120182037        15.752128601
    58.358257294        46.142398834        36.707244873
    60.511215210        47.385410309        50.727283478
    19.542058945         6.302917480        68.214859009
    17.389101028         5.059907436        54.194824219
   112.261726379       107.141761780        50.727283478
   110.108772278       105.898750305        36.707244873
    82.077247620        34.938083649        54.194824219
    21.701642990        12.529451370        36.707244873
    58.358257294        46.142398834        54.194824219
    19.542058945         6.302917480        50.727283478
    17.389101028         5.059907436        36.707244873
    84.230201721        36.181095123        68.214859009
   112.261726379       107.141761780        33.239704132
    60.514530182        49.877174377         1.732092857
    19.542058945         6.302917480        33.239704132
    17.389101028         5.059907436        19.219671249
    60.511215210        47.385410309        68.214859009
    69.136299133        62.324497223        68.214859009
    54.045719147         1.325135469        54.194824219
    43.261043549        17.507232666        68.214859009
    90.699012756       107.141761780        68.214859009
    66.980033875        21.242004395        33.239704132
    64.827072144        19.998994827        19.219671249
    56.198669434        69.794044495        33.239704132
    54.045711517        68.551033020        19.219671249
    90.702323914       109.633522034         1.732092857
    62.670806885         1.325135469        36.707244873
    64.823760986         2.568145752        50.727283478
    92.855285645       110.876533508        15.752128601
    56.198669434        69.794044495        15.752128601
    54.045711517        68.551033020         1.732092857
    66.980033875        21.242004395        15.752128601
    90.702323914       109.633522034        19.219671249
    92.855285645       110.876533508        33.239704132
    64.827072144        19.998994827         1.732092857
    88.546051025       105.898750305        54.194824219
    54.042400360        66.059272766        68.214859009
    54.045711517        68.551033020        36.707244873
    64.823760986         2.568145752        33.239704132
    88.546051025       105.898750305         1.732092857
    90.699012756       107.141761780        15.752128601
    62.670806885         1.325135469         1.732092857
    64.823760986         2.568145752        15.752128601
    58.354942322        73.528816223        15.752128601
    56.201984406        72.285804749         1.732092857
    88.546051025       105.898750305        19.219671249
    90.699012756       107.141761780        33.239704132
    66.980033875        21.242004395        50.727283478
    64.827072144        19.998994827        36.707244873
    56.198669434        69.794044495        68.214859009
    54.045711517        68.551033020        54.194824219
    88.546051025       105.898750305        36.707244873
    90.699012756       107.141761780        50.727283478
    62.670806885         1.325135469        19.219671249
    56.198669434        69.794044495        50.727283478
    56.201984406        72.285804749        19.219671249
    51.889442444        64.816261292        54.194824219
    64.823760986         2.568145752        68.214859009
    66.980033875         6.302917480        33.239704132
    92.858596802       113.368293762        19.219671249
    95.011550903       114.611305237        33.239704132
    51.886127472        62.324497223        68.214859009
    49.733169556        61.081489563        54.194824219
    92.858596802       113.368293762        36.707244873
    95.011550903       114.611305237        50.727283478
    51.886127472        62.324497223        50.727283478
    49.733169556        61.081489563        36.707244873
    64.823760986        17.507232666        33.239704132
    64.827079773         5.059907436        36.707244873
    66.980033875         6.302917480        50.727283478
    62.670803070        16.264223099        19.219671249
    92.858596802       113.368293762        54.194824219
    95.011550903       114.611305237        68.214859009
    64.827079773         5.059907436        19.219671249
    62.670806885         1.325135469        54.194824219
    62.670803070        16.264223099        36.707244873
    51.889442444        64.816261292         1.732092857
    90.702323914       109.633522034        36.707244873
    92.855285645       110.876533508        50.727283478
    54.042400360        66.059272766        50.727283478
    51.889442444        64.816261292        36.707244873
    64.823760986        17.507232666        68.214859009
    62.670803070        16.264223099        54.194824219
    90.702323914       109.633522034        54.194824219
    64.827079773         5.059907436         1.732092857
    92.855285645       110.876533508        68.214859009
    54.042400360        66.059272766        33.239704132
    51.889442444        64.816261292        19.219671249
    66.980033875         6.302917480        15.752128601
    92.858596802       113.368293762         1.732092857
    95.011550903       114.611305237        15.752128601
    54.042400360        66.059272766        15.752128601
    64.823760986        17.507232666        50.727283478
    58.354942322        73.528816223        33.239704132
    64.827072144        19.998994827        54.194824219
    66.980033875        21.242004395        68.214859009
    82.077239990        94.694435120        54.194824219
    84.230194092        95.937446594        68.214859009
    62.667484283        80.998359680        50.727283478
    60.514526367        79.755348206        36.707244873
    84.233512878        98.429206848         1.732092857
   123.046394348       113.368293762        54.194824219
   125.199356079       114.611305237        68.214859009
    86.386466980        99.672218323        15.752128601
    62.667484283        80.998359680        33.239704132
    60.514526367        79.755348206        19.219671249
    69.136306763        24.976778030        68.214859009
    66.983345032        23.733766556        54.194824219
    84.233512878        98.429206848        19.219671249
    86.386466980        99.672218323        33.239704132
    62.667484283        80.998359680        15.752128601
    69.139617920        27.468538284         1.732092857
    60.514526367        79.755348206         1.732092857
    71.292572021        28.711549759        15.752128601
    60.514526367        79.755348206        54.194824219
    84.230194092        95.937446594        15.752128601
    64.823753357        84.733131409        33.239704132
    62.670799255        83.490119934        19.219671249
   123.046394348       113.368293762        19.219671249
   125.199356079       114.611305237        33.239704132
    71.292572021        28.711549759        33.239704132
    69.139617920        27.468538284        19.219671249
    82.077239990        94.694435120        19.219671249
    84.230194092        95.937446594        33.239704132
    64.823753357        84.733131409        15.752128601
    62.670799255        83.490119934         1.732092857
    82.077239990        94.694435120        36.707244873
    84.230194092        95.937446594        50.727283478
   123.046394348       113.368293762        36.707244873
    62.667484283        80.998359680        68.214859009
   125.199356079       114.611305237        50.727283478
   125.202667236       117.103065491         1.732092857
   127.355628967       118.346076965        15.752128601
    84.233512878        98.429206848        36.707244873
    58.358257294        76.020576477         1.732092857
   125.202667236       117.103065491        36.707244873
   127.355628967       118.346076965        50.727283478
    69.136306763        24.976778030        15.752128601
    66.983345032        23.733766556         1.732092857
    58.354942322        73.528816223        68.214859009
    56.201984406        72.285804749        54.194824219
    86.389785767       102.163978577        36.707244873
    88.542739868       103.406990051        50.727283478
   125.202667236       117.103065491        54.194824219
    86.389785767       102.163978577        54.194824219
    88.542739868       103.406990051        68.214859009
    58.354942322        73.528816223        50.727283478
    56.201984406        72.285804749        36.707244873
   127.355628967       118.346076965        68.214859009
    60.511211395        77.263587952        15.752128601
    88.542739868       103.406990051        33.239704132
    86.389785767       102.163978577        19.219671249
    66.983345032        23.733766556        19.219671249
    86.386466980        99.672218323        50.727283478
    60.511211395        77.263587952        68.214859009
    58.358257294        76.020576477        54.194824219
    69.136306763        24.976778030        50.727283478
    66.983345032        23.733766556        36.707244873
    84.233512878        98.429206848        54.194824219
    86.386466980        99.672218323        68.214859009
    51.886127472        62.324497223        33.239704132
    60.511211395        77.263587952        50.727283478
   125.202667236       117.103065491        19.219671249
   127.355628967       118.346076965        33.239704132
    69.136306763        24.976778030        33.239704132
    86.389785767       102.163978577         1.732092857
    60.511211395        77.263587952        33.239704132
    58.358257294        76.020576477        19.219671249
    88.542739868       103.406990051        15.752128601
    58.358257294        76.020576477        36.707244873
    56.198677063         2.568145752        68.214859009
    49.733169556        61.081489563        19.219671249
    97.167823792       118.346076965        15.752128601
    36.795543671         8.794679642        54.194824219
    38.948501587        10.037689209        68.214859009
    43.261043549        47.385410309        15.752128601
    41.108085632        46.142398834         1.732092857
    71.295890808        16.264223099         1.732092857
    73.448844910        17.507232666        15.752128601
    38.951816559        12.529451370         1.732092857
    41.104774475        13.772460938        15.752128601
    41.104770660        43.650638580        68.214859009
    38.951812744        42.407627106        54.194824219
    58.354949951         6.302917480        68.214859009
    56.201988220         5.059907436        54.194824219
    38.951816559        12.529451370        19.219671249
    41.104774475        13.772460938        33.239704132
    41.104770660        43.650638580        50.727283478
    58.358261108         8.794679642         1.732092857
    38.951812744        42.407627106        36.707244873
    60.511219025        10.037689209        15.752128601
    43.261043549        47.385410309        33.239704132
    38.948501587        10.037689209        15.752128601
    69.139617920        12.529451370        36.707244873
    43.261043549        47.385410309        68.214859009
    41.108085632        46.142398834        54.194824219
    71.292572021        13.772460938        50.727283478
    60.511219025        10.037689209        33.239704132
    58.358261108         8.794679642        19.219671249
    36.795543671         8.794679642        19.219671249
    38.948501587        10.037689209        33.239704132
    43.261043549        47.385410309        50.727283478
    41.108085632        46.142398834        36.707244873
    36.795543671         8.794679642        36.707244873
    38.948501587        10.037689209        50.727283478
    69.139617920        12.529451370        54.194824219
    71.292572021        13.772460938        68.214859009
    41.108085632        46.142398834        19.219671249
    36.795543671         8.794679642         1.732092857
    71.295890808        16.264223099        19.219671249
    38.951816559        12.529451370        36.707244873
    43.261043549        17.507232666        33.239704132
    38.948501587        39.915866852        50.727283478
    36.795543671        38.672855377        36.707244873
    73.448844910        17.507232666        68.214859009
    58.354949951         6.302917480        15.752128601
    56.201988220         5.059907436         1.732092857
    38.948501587        39.915866852        33.239704132
    36.795543671        38.672855377        19.219671249
    41.108089447        16.264223099        36.707244873
    43.261043549        17.507232666        50.727283478
    73.452163696        19.998994827         1.732092857
    75.605117798        21.242004395        15.752128601
    41.108089447        16.264223099        54.194824219
    38.948501587        39.915866852        15.752128601
    36.795543671        38.672855377         1.732092857
    41.108089447        16.264223099        19.219671249
    73.448844910        17.507232666        33.239704132
    71.295890808        16.264223099        54.194824219
    43.261043549        17.507232666        15.752128601
    41.104774475        13.772460938        50.727283478
    41.104770660        43.650638580        33.239704132
    38.951812744        42.407627106        19.219671249
    58.354949951         6.302917480        50.727283478