Ge Sb Te 
1.0
        4.2339262962         0.0000000000         0.0000000000
        2.1169629040         3.6666878712         0.0000000000
        0.0000000000         0.0000000000        16.8210678101
   Ge   Sb   Te
    2    2    5
Direct
     0.333333343         0.333333353         0.101072217
     0.666666686         0.666666705         0.898927825
    -0.000000000         0.000000000         0.318826961
     0.000000000         0.000000000         0.681173011
     0.000000000         0.000000000         0.000000000
     0.666666686         0.666666705         0.199920153
     0.333333343         0.333333353         0.421744254
     0.666666686         0.666666705         0.578255746
     0.333333343         0.333333353         0.800079861
