supercell-16x18x4
1.0
       66.7888793945         0.0000000000         0.0000000000
        0.0000000000        65.0709770280         0.0000000000
        0.0000000000         0.0000000000        72.1374664307
   Ge   Sb   Te
 2304 2304 5760
Cartesian
     2.087152481         1.205018044         8.009589195
    22.958677292        13.255198479        11.996313095
    68.876029968        15.665235519        26.043956757
    43.830196381        20.485307693        11.996313095
    41.743049622        19.280288696         8.009589195
    83.486091614        62.660942078        26.043956757
    85.573249817        63.865959167        30.030679703
    20.871522903        12.050180435        26.043956757
    22.958677292        13.255198479        30.030679703
    41.743045807        16.870252609        66.099411011
    39.655895233        15.665235519        62.112689972
    70.963188171        16.870252609        11.996313095
    68.876029968        15.665235519         8.009589195
    20.871522903        12.050180435        44.078323364
    22.958677292        13.255198479        48.065048218
    41.743045807        16.870252609        48.065048218
    39.655895233        15.665235519        44.078323364
    83.486091614        62.660942078        44.078323364
    20.871522903        12.050180435         8.009589195
    70.963188171        16.870252609        30.030679703
    85.573249817        63.865959167        11.996313095
    41.743049622        19.280288696        26.043956757
    70.963188171        16.870252609        66.099411011
    68.876029968        15.665235519        62.112689972
    18.784372330         8.435126305        26.043956757
    20.871524811         9.640144348        30.030679703
    43.830196381        20.485307693        66.099411011
    41.743049622        19.280288696        62.112689972
    81.398941040        59.045886993        62.112689972
    83.486099243        60.250904083        66.099411011
    85.573249817        63.865959167        48.065048218
    18.784372330         8.435126305        44.078323364
    43.830196381        20.485307693        48.065048218
    70.963188171        16.870252609        48.065048218
    68.876029968        15.665235519        44.078323364
    41.743049622        19.280288696        44.078323364
    83.486091614        62.660942078         8.009589195
    18.784372330         8.435126305        62.112689972
    20.871524811         9.640144348        66.099411011
    43.830196381        20.485307693        30.030679703
    20.871524811         9.640144348        48.065048218
    43.830200195        22.895343781         8.009589195
    20.871522903        12.050180435        62.112689972
    41.743045807        16.870252609        30.030679703
    25.045829773        16.870252609        66.099411011
    68.876029968        13.255198479        30.030679703
    66.788879395        12.050180435        26.043956757
    39.655895233        13.255198479        30.030679703
    25.045827866        19.280288696         8.009589195
    27.132980347        20.485307693        11.996313095
    37.568744659        12.050180435        26.043956757
    52.178810120         1.205018044        26.043956757
    39.655895233        13.255198479        11.996313095
    37.568744659        12.050180435         8.009589195
    68.876029968        13.255198479        11.996313095
    25.045827866        19.280288696        26.043956757
    27.132980347        20.485307693        30.030679703
    54.265964508         2.410036087        30.030679703
    66.788879395        12.050180435         8.009589195
    37.568740845         9.640144348        66.099411011
    25.045827866        19.280288696        44.078323364
    22.958675385        15.665235519        62.112689972
    54.265964508         2.410036087        11.996313095
    52.178810120         1.205018044         8.009589195
    37.568744659        12.050180435        44.078323364
    68.876029968        13.255198479        66.099411011
    66.788879395        12.050180435        62.112689972
    39.655895233        15.665235519        26.043956757
    22.958675385        15.665235519         8.009589195
    25.045829773        16.870252609        11.996313095
    41.743045807        16.870252609        11.996313095
    39.655895233        15.665235519         8.009589195
    83.486091614        62.660942078        62.112689972
    22.958677292        13.255198479        66.099411011
    85.573249817        63.865959167        66.099411011
    25.045829773        16.870252609        30.030679703
    68.876029968        13.255198479        48.065048218
    66.788879395        12.050180435        44.078323364
    39.655895233        13.255198479        66.099411011
    22.958675385        15.665235519        44.078323364
    25.045829773        16.870252609        48.065048218
    37.568744659        12.050180435        62.112689972
    39.655895233        13.255198479        48.065048218
    22.958675385        15.665235519        26.043956757
    27.132980347        20.485307693        48.065048218
    45.917350769        24.100360870        11.996313095
    18.784372330         8.435126305         8.009589195
    79.311790466        55.430831909        26.043956757
    45.917350769        62.660942078        44.078323364
    48.004505157        63.865959167        48.065048218
    81.398948669        56.635848999        30.030679703
    50.091655731        31.330471039        30.030679703
    48.004505157        30.125452042        26.043956757
    45.917350769        62.660942078        62.112689972
    48.004505157        63.865959167        66.099411011
    50.091655731        31.330471039        11.996313095
    75.137489319        24.100360870        11.996313095
    73.050331116        22.895343781         8.009589195
    48.004505157        30.125452042         8.009589195
    79.311790466        55.430831909        44.078323364
    14.610067368         1.205018044         8.009589195
    16.697219849         2.410036087        11.996313095
    81.398948669        56.635848999        48.065048218
    48.004505157        27.715415955        66.099411011
    73.050331116        22.895343781        26.043956757
    75.137489319        24.100360870        30.030679703
    48.004505157        30.125452042        44.078323364
    50.091655731        31.330471039        48.065048218
    45.917350769        60.250904083        48.065048218
    73.050331116        22.895343781        62.112689972
    52.178806305        34.945522308        30.030679703
    50.091659546        33.740505219        26.043956757
    43.830196381        59.045886993        62.112689972
    45.917350769        60.250904083        66.099411011
    52.178806305        34.945522308        11.996313095
    50.091659546        33.740505219         8.009589195
    45.917354584        26.510396957        62.112689972
    79.311790466        55.430831909         8.009589195
    73.050331116        22.895343781        44.078323364
    45.917350769        62.660942078         8.009589195
    48.004505157        63.865959167        11.996313095
    81.398948669        56.635848999        11.996313095
    50.091655731        31.330471039        66.099411011
    48.004505157        30.125452042        62.112689972
    45.917350769        62.660942078        26.043956757
    48.004505157        63.865959167        30.030679703
    75.137489319        24.100360870        48.065048218
    20.871524811         9.640144348        11.996313095
    14.610067368         1.205018044        26.043956757
    79.311790466        55.430831909        62.112689972
    18.784372330         6.025090218        30.030679703
    45.917350769        24.100360870        66.099411011
    43.830200195        22.895343781        62.112689972
    81.398941040        59.045886993        26.043956757
    83.486099243        60.250904083        30.030679703
    16.697219849         4.820072174        44.078323364
    18.784372330         6.025090218        48.065048218
    45.917350769        24.100360870        48.065048218
    43.830200195        22.895343781        44.078323364
    73.050338745        20.485307693        11.996313095
    70.963180542        19.280288696         8.009589195
    16.697219849         4.820072174        62.112689972
    18.784372330         6.025090218        66.099411011
    45.917350769        24.100360870        30.030679703
    43.830200195        22.895343781        26.043956757
    81.398941040        59.045886993        44.078323364
    83.486099243        60.250904083        48.065048218
    16.697219849         4.820072174        26.043956757
    70.963180542        19.280288696        26.043956757
    73.050338745        20.485307693        30.030679703
    45.917354584        26.510396957         8.009589195
    73.050338745        20.485307693        66.099411011
    70.963180542        19.280288696        62.112689972
    48.004505157        27.715415955        48.065048218
    45.917354584        26.510396957        44.078323364
    14.610067368         1.205018044        44.078323364
    16.697219849         2.410036087        48.065048218
    81.398948669        56.635848999        66.099411011
    48.004505157        27.715415955        30.030679703
    16.697219849         2.410036087        30.030679703
    73.050338745        20.485307693        48.065048218
    16.697219849         2.410036087        66.099411011
    45.917354584        26.510396957        26.043956757
    81.398941040        59.045886993         8.009589195
    70.963180542        19.280288696        44.078323364
    83.486099243        60.250904083        11.996313095
    48.004505157        27.715415955        11.996313095
    16.697219849         4.820072174         8.009589195
    18.784372330         6.025090218        11.996313095
    14.610067368         1.205018044        62.112689972
    43.830196381        59.045886993        44.078323364
    35.481594086         8.435126305        62.112689972
    54.265964508         2.410036087        48.065048218
    62.614574432         2.410036087        30.030679703
    60.527420044         1.205018044        26.043956757
    35.481590271        37.355560303        26.043956757
    37.568744659        38.560577393        30.030679703
    62.614570618        60.250904083        30.030679703
    60.527420044        59.045886993        26.043956757
    58.440265656        12.050180435         8.009589195
    60.527423859        13.255198479        11.996313095
    62.614570618        60.250904083        11.996313095
    35.481590271        37.355560303        44.078323364
    37.568744659        38.560577393        48.065048218
    60.527420044        59.045886993         8.009589195
    62.614574432         2.410036087        11.996313095
    60.527420044         1.205018044         8.009589195
    35.481590271        37.355560303        62.112689972
    37.568744659        38.560577393        66.099411011
    60.527420044        56.635848999        66.099411011
    58.440269470         9.640144348        66.099411011
    37.568744659        38.560577393        11.996313095
    35.481590271        37.355560303         8.009589195
    60.527420044        59.045886993        44.078323364
    33.394435883        33.740505219        26.043956757
    35.481590271        34.945522308        30.030679703
    62.614574432         2.410036087        66.099411011
    60.527420044         1.205018044        62.112689972
    64.701721191        63.865959167        11.996313095
    62.614570618        62.660942078         8.009589195
    56.353115082         8.435126305        44.078323364
    33.394435883        33.740505219        44.078323364
    58.440269470        55.430831909        62.112689972
    35.481590271        34.945522308        48.065048218
    62.614570618        60.250904083        66.099411011
    62.614574432         2.410036087        48.065048218
    33.394435883        33.740505219        62.112689972
    35.481590271        34.945522308        66.099411011
    60.527420044        59.045886993        62.112689972
    56.353115082         8.435126305        62.112689972
    60.527420044         1.205018044        44.078323364
    62.614570618        60.250904083        48.065048218
    58.440269470         9.640144348        48.065048218
    62.614570618        62.660942078        26.043956757
    58.440265656        12.050180435        26.043956757
    37.568740845        40.970615387         8.009589195
    60.527423859        13.255198479        66.099411011
    93.921859741        63.865959167        30.030679703
    39.655895233        44.585670471         8.009589195
    41.743045807        45.790687561        11.996313095
    91.834701538        62.660942078        26.043956757
    58.440265656        53.020793915        48.065048218
    56.353115082        51.815776825        44.078323364
    60.527420044        15.665235519         8.009589195
    39.655895233        44.585670471        26.043956757
    41.743045807        45.790687561        30.030679703
    58.440265656        53.020793915        30.030679703
    56.353115082        51.815776825        26.043956757
    62.614574432        16.870252609        11.996313095
    93.921859741        63.865959167        11.996313095
    91.834701538        62.660942078         8.009589195
    39.655895233        44.585670471        44.078323364
    41.743045807        45.790687561        48.065048218
    58.440265656        12.050180435        62.112689972
    56.353115082        51.815776825        62.112689972
    58.440265656        53.020793915        66.099411011
    39.655895233        42.175632477        66.099411011
    39.655895233        42.175632477        11.996313095
    60.527420044        56.635848999        48.065048218
    58.440269470        55.430831909        44.078323364
    93.921859741        63.865959167        66.099411011
    91.834701538        62.660942078        62.112689972
    37.568740845        40.970615387        26.043956757
    39.655895233        42.175632477        30.030679703
    60.527420044        56.635848999        30.030679703
    60.527423859        13.255198479        30.030679703
    58.440269470        55.430831909        26.043956757
    60.527423859        13.255198479        48.065048218
    37.568740845        40.970615387        44.078323364
    39.655895233        42.175632477        48.065048218
    60.527420044        56.635848999        11.996313095
    93.921859741        63.865959167        48.065048218
    91.834701538        62.660942078        44.078323364
    58.440269470        55.430831909         8.009589195
    37.568740845        40.970615387        62.112689972
    58.440265656        12.050180435        44.078323364
    52.178810120         1.205018044        44.078323364
    64.701721191        63.865959167        30.030679703
    35.481590271        34.945522308        11.996313095
    54.265964508         4.820072174         8.009589195
    56.353118896         6.025090218        11.996313095
    66.788879395         9.640144348        30.030679703
    64.701728821         8.435126305        26.043956757
    27.132980347        22.895343781        62.112689972
    29.220132828        24.100360870        66.099411011
    35.481590271         6.025090218        48.065048218
    33.394439697         4.820072174        44.078323364
    35.481590271         6.025090218        30.030679703
    29.220132828        26.510396957         8.009589195
    31.307287216        27.715415955        11.996313095
    33.394439697         4.820072174        26.043956757
    54.265964508         4.820072174        26.043956757
    66.788879395         9.640144348        11.996313095
    64.701728821         8.435126305         8.009589195
    56.353118896         6.025090218        30.030679703
    29.220132828        26.510396957        26.043956757
    33.394439697         4.820072174        62.112689972
    29.220132828        24.100360870        48.065048218
    27.132980347        22.895343781        44.078323364
    35.481590271         6.025090218        66.099411011
    66.788879395         9.640144348        66.099411011
    64.701728821         8.435126305        62.112689972
    25.045827866        19.280288696        62.112689972
    27.132980347        20.485307693        66.099411011
    37.568740845         9.640144348        48.065048218
    35.481594086         8.435126305        44.078323364
    37.568740845         9.640144348        30.030679703
    27.132980347        22.895343781         8.009589195
    31.307287216        27.715415955        30.030679703
    29.220132828        24.100360870        11.996313095
    52.178810120         1.205018044        62.112689972
    54.265964508         2.410036087        66.099411011
    66.788879395         9.640144348        48.065048218
    64.701728821         8.435126305        44.078323364
    27.132980347        22.895343781        26.043956757
    29.220132828        24.100360870        30.030679703
    37.568740845         9.640144348        11.996313095
    35.481594086         8.435126305         8.009589195
    35.481594086         8.435126305        26.043956757
    58.440269470         9.640144348        30.030679703
    35.481590271         6.025090218        11.996313095
    54.265964508         4.820072174        44.078323364
    31.307287216         1.205018044         8.009589195
    64.701728821         6.025090218        30.030679703
    62.614574432         4.820072174        26.043956757
    56.353115082         8.435126305         8.009589195
    31.307285309        30.125452042        44.078323364
    33.394439697        31.330471039        48.065048218
    58.440269470         9.640144348        11.996313095
    64.701721191        63.865959167        66.099411011
    62.614570618        62.660942078        62.112689972
    31.307285309        30.125452042        62.112689972
    33.394439697        31.330471039        66.099411011
    64.701721191        63.865959167        48.065048218
    64.701728821         6.025090218        11.996313095
    62.614574432         4.820072174         8.009589195
    62.614570618        62.660942078        44.078323364
    56.353115082         8.435126305        26.043956757
    33.394435883        33.740505219         8.009589195
    33.394435883         2.410036087        11.996313095
    33.394439697        31.330471039        30.030679703
    31.307285309        30.125452042        26.043956757
    31.307287216         1.205018044        26.043956757
    64.701728821         6.025090218        66.099411011
    29.220132828        26.510396957        44.078323364
    31.307287216        27.715415955        48.065048218
    33.394435883         2.410036087        66.099411011
    62.614574432         4.820072174        62.112689972
    31.307287216         1.205018044        62.112689972
    56.353118896         6.025090218        48.065048218
    29.220132828        26.510396957        62.112689972
    33.394439697         4.820072174         8.009589195
    31.307287216        27.715415955        66.099411011
    31.307287216         1.205018044        44.078323364
    54.265964508         4.820072174        62.112689972
    64.701728821         6.025090218        48.065048218
    62.614574432         4.820072174        44.078323364
    31.307285309        30.125452042         8.009589195
    33.394439697        31.330471039        11.996313095
    56.353118896         6.025090218        66.099411011
    33.394435883         2.410036087        30.030679703
    33.394435883         2.410036087        48.065048218
    58.440265656        53.020793915        11.996313095
    75.137489319        24.100360870        66.099411011
    77.224639893        51.815776825        62.112689972
    37.568744659         2.410036087        48.065048218
    35.481590271         1.205018044        44.078323364
    66.788879395        33.740505219        62.112689972
    68.876029968        34.945522308        66.099411011
    25.045827866        26.510396957         8.009589195
    27.132982254        27.715415955        11.996313095
    37.568744659         2.410036087        30.030679703
    87.660400391        45.790687561        11.996313095
    85.573249817        44.585670471         8.009589195
    35.481590271         1.205018044        26.043956757
    25.045827866        26.510396957        26.043956757
    27.132982254        27.715415955        30.030679703
    37.568744659         2.410036087        11.996313095
    35.481590271         1.205018044         8.009589195
    68.876029968        37.355560303         8.009589195
    70.963180542        38.560577393        11.996313095
    85.573249817        42.175632477        66.099411011
    25.045827866        24.100360870        66.099411011
    22.958675385        22.895343781        62.112689972
    85.573249817        44.585670471        26.043956757
    87.660400391        45.790687561        30.030679703
    39.655899048         6.025090218        30.030679703
    22.958675385        22.895343781         8.009589195
    25.045827866        24.100360870        11.996313095
    37.568744659         4.820072174        26.043956757
    66.788879395        33.740505219        26.043956757
    68.876029968        34.945522308        30.030679703
    87.660400391        45.790687561        48.065048218
    85.573249817        44.585670471        44.078323364
    25.045827866        26.510396957        44.078323364
    22.958675385        22.895343781        26.043956757
    39.655899048         6.025090218        11.996313095
    37.568744659         4.820072174         8.009589195
    66.788879395        33.740505219        44.078323364
    22.958675385        22.895343781        44.078323364
    25.045827866        24.100360870        48.065048218
    37.568744659         2.410036087        66.099411011
    35.481590271         1.205018044        62.112689972
    68.876029968        34.945522308        48.065048218
    25.045827866        24.100360870        30.030679703
    37.568744659         4.820072174        44.078323364
    27.132982254        27.715415955        48.065048218
    68.876022339        63.865959167        66.099411011
    70.963180542        38.560577393        48.065048218
    66.788871765        60.250904083        66.099411011
    64.701721191        59.045886993        62.112689972
    27.132980347        30.125452042        62.112689972
    29.220132828        31.330471039        66.099411011
    68.876029968        37.355560303        62.112689972
    85.573249817        42.175632477        11.996313095
    83.486091614        40.970615387         8.009589195
    66.788871765        60.250904083        48.065048218
    64.701721191        59.045886993        44.078323364
    29.220132828        33.740505219         8.009589195
    31.307285309        34.945522308        11.996313095
    70.963180542        38.560577393        66.099411011
    66.788871765        60.250904083        30.030679703
    64.701721191        59.045886993        26.043956757
    29.220132828        33.740505219        26.043956757
    31.307285309        34.945522308        30.030679703
    29.220132828        31.330471039        48.065048218
    27.132980347        30.125452042        44.078323364
    68.876029968        37.355560303        44.078323364
    83.486091614        40.970615387        26.043956757
    66.788879395        62.660942078        62.112689972
    25.045827866        26.510396957        62.112689972
    27.132982254        27.715415955        66.099411011
    68.876022339        63.865959167        48.065048218
    66.788879395        62.660942078        44.078323364
    68.876029968        37.355560303        26.043956757
    85.573249817        42.175632477        48.065048218
    83.486091614        40.970615387        44.078323364
    83.486091614        40.970615387        62.112689972
    27.132980347        30.125452042         8.009589195
    70.963180542        38.560577393        30.030679703
    68.876022339        63.865959167        30.030679703
    66.788879395        62.660942078        26.043956757
    27.132980347        30.125452042        26.043956757
    29.220132828        31.330471039        30.030679703
    68.876022339        63.865959167        11.996313095
    66.788879395        62.660942078         8.009589195
    85.573249817        42.175632477        30.030679703
    29.220132828        31.330471039        11.996313095
    70.963180542        40.970615387         8.009589195
    39.655899048         6.025090218        48.065048218
    20.871522903        19.280288696        62.112689972
    16.697217941        12.050180435        26.043956757
    18.784372330        13.255198479        30.030679703
    43.830204010        13.255198479        66.099411011
    91.834709167        53.020793915        11.996313095
    89.747550964        51.815776825         8.009589195
    16.697217941        12.050180435        44.078323364
    18.784372330        13.255198479        48.065048218
    41.743045807        12.050180435        62.112689972
    43.830204010        13.255198479        48.065048218
    41.743045807        12.050180435        44.078323364
    64.701721191        30.125452042         8.009589195
    66.788879395        31.330471039        11.996313095
    16.697217941        12.050180435        62.112689972
    18.784372330        13.255198479        66.099411011
    89.747558594        49.405742645        66.099411011
    87.660400391        48.200721741        62.112689972
    43.830204010        13.255198479        30.030679703
    64.701728821        27.715415955        66.099411011
    62.614570618        26.510396957        62.112689972
    43.830200195        15.665235519         8.009589195
    45.917354584        16.870252609        11.996313095
    45.917354584        16.870252609        66.099411011
    43.830200195        15.665235519        62.112689972
    14.610066414         8.435126305        44.078323364
    16.697219849         9.640144348        48.065048218
    45.917354584        16.870252609        48.065048218
    91.834709167        53.020793915        48.065048218
    89.747550964        51.815776825        44.078323364
    43.830200195        15.665235519        44.078323364
    18.784370422        15.665235519         8.009589195
    62.614570618        26.510396957        44.078323364
    14.610066414         8.435126305        62.112689972
    16.697219849         9.640144348        66.099411011
    45.917354584        16.870252609        30.030679703
    43.830200195        15.665235519        26.043956757
    91.834709167        53.020793915        30.030679703
    16.697217941        12.050180435         8.009589195
    18.784372330        13.255198479        11.996313095
    89.747550964        51.815776825        26.043956757
    64.701728821        27.715415955        48.065048218
    22.958675385        20.485307693        66.099411011
    20.871524811        16.870252609        11.996313095
    64.701721191        30.125452042        26.043956757
    39.655895233         8.435126305        26.043956757
    64.701721191        30.125452042        62.112689972
    66.788879395        31.330471039        66.099411011
    89.747558594        49.405742645        11.996313095
    20.871522903        19.280288696        26.043956757
    22.958675385        20.485307693        30.030679703
    41.743049622         9.640144348        11.996313095
    39.655895233         8.435126305         8.009589195
    87.660400391        48.200721741         8.009589195
    39.655899048         6.025090218        66.099411011
    20.871522903        19.280288696        44.078323364
    22.958675385        20.485307693        48.065048218
    37.568744659         4.820072174        62.112689972
    66.788879395        33.740505219         8.009589195
    68.876029968        34.945522308        11.996313095
    87.660400391        45.790687561        66.099411011
    85.573249817        44.585670471        62.112689972
    22.958675385        20.485307693        11.996313095
    20.871522903        19.280288696         8.009589195
    41.743049622         9.640144348        30.030679703
    87.660400391        48.200721741        26.043956757
    43.830204010        13.255198479        11.996313095
    41.743045807        12.050180435         8.009589195
    66.788879395        31.330471039        30.030679703
    18.784370422        15.665235519        26.043956757
    20.871524811        16.870252609        30.030679703
    89.747558594        49.405742645        48.065048218
    87.660400391        48.200721741        44.078323364
    41.743049622         9.640144348        66.099411011
    41.743045807        12.050180435        26.043956757
    18.784370422        15.665235519        44.078323364
    39.655895233         8.435126305        62.112689972
    64.701721191        30.125452042        44.078323364
    66.788879395        31.330471039        48.065048218
    41.743049622         9.640144348        48.065048218
    39.655895233         8.435126305        44.078323364
    18.784370422        15.665235519        62.112689972
    20.871524811        16.870252609        66.099411011
    89.747558594        49.405742645        30.030679703
    20.871524811        16.870252609        48.065048218
    79.311790466        53.020793915        66.099411011
    73.050331116        42.175632477        11.996313095
    81.398941040        37.355560303        62.112689972
    56.353111267        42.175632477        66.099411011
    39.655895233        51.815776825         8.009589195
    41.743045807        53.020793915        11.996313095
    54.265960693        40.970615387        62.112689972