supercell-20x20x5
 1.0000000000000000
    84.6785221609892602    0.0000000000001400    0.0000000000000140
    42.3392610804939693   73.3337513463395538    0.0000000000000000
    -0.0000000000000000   -0.0000000000000040   84.1053423884788742
 Ge  Sb  Te 
 4000 4000 10000
Direct
  0.0166666666666668  0.0166666666666668  0.0202144434741125
  0.5666666666666668  0.2166666666666668  0.2202144434741125
  0.5833333333333331  0.2333333333333331  0.3797855565258832
  0.8666666666666668  0.0166666666666668  0.8202144434741124
  0.8833333333333332  0.0333333333333332  0.9797855565258832
  0.2833333333333332  0.3333333333333333  0.5797855565258832
  0.2666666666666668  0.3166666666666668  0.4202144434741124
  0.2833333333333332  0.3333333333333332  0.3797855565258832
  0.2666666666666668  0.3166666666666668  0.2202144434741125
  0.8666666666666666  0.0666666666666668  0.0202144434741125
  0.8833333333333332  0.0833333333333332  0.1797855565258833
  0.2833333333333332  0.3333333333333332  0.1797855565258833
  0.2666666666666668  0.3166666666666668  0.0202144434741125
  0.5666666666666668  0.2166666666666668  0.4202144434741125
  0.5833333333333331  0.2333333333333332  0.5797855565258833
  0.2833333333333332  0.2833333333333332  0.9797855565258832
  0.2666666666666667  0.2666666666666668  0.8202144434741124
  0.8666666666666666  0.0666666666666668  0.2202144434741125
  0.6666666666666667  0.7666666666666667  0.4202144434741125
  0.2666666666666668  0.3166666666666668  0.6202144434741124
  0.2833333333333332  0.3333333333333332  0.7797855565258832
  0.6833333333333332  0.7833333333333332  0.5797855565258833
  0.2666666666666668  0.3666666666666668  0.6202144434741124
  0.6666666666666667  0.7666666666666667  0.6202144434741125
  0.8666666666666668  0.0166666666666668  0.2202144434741125
  0.8833333333333332  0.0333333333333332  0.3797855565258832
  0.2833333333333332  0.3833333333333332  0.5797855565258832
  0.2666666666666668  0.3666666666666668  0.4202144434741124
  0.5666666666666668  0.2166666666666668  0.0202144434741125
  0.2833333333333332  0.3833333333333332  0.3797855565258832
  0.8833333333333332  0.0833333333333332  0.3797855565258832
  0.2666666666666668  0.3666666666666668  0.2202144434741125
  0.8833333333333332  0.0333333333333332  0.5797855565258833
  0.5833333333333331  0.2333333333333331  0.1797855565258832
  0.2833333333333332  0.3833333333333332  0.1797855565258833
  0.2666666666666668  0.3666666666666668  0.0202144434741125
  0.8666666666666668  0.0166666666666668  0.6202144434741125
  0.2833333333333332  0.3333333333333332  0.9797855565258832
  0.2666666666666668  0.3166666666666668  0.8202144434741124
  0.8833333333333332  0.0333333333333332  0.7797855565258832
  0.8666666666666668  0.0166666666666668  0.4202144434741125
  0.2833333333333332  0.3833333333333332  0.7797855565258832
  0.2833333333333332  0.2833333333333332  0.7797855565258832
  0.6833333333333332  0.7833333333333332  0.3797855565258832
  0.2666666666666668  0.2166666666666668  0.4202144434741124
  0.8666666666666668  0.1166666666666668  0.0202144434741125
  0.8833333333333333  0.1333333333333332  0.1797855565258833
  0.2833333333333332  0.2333333333333332  0.3797855565258832
  0.2666666666666668  0.2166666666666668  0.2202144434741125
  0.6833333333333332  0.7833333333333332  0.1797855565258833
  0.6666666666666667  0.7666666666666667  0.0202144434741125
  0.2833333333333332  0.2333333333333332  0.1797855565258833
  0.2666666666666668  0.2166666666666668  0.0202144434741125
  0.5666666666666668  0.2666666666666667  0.0202144434741125
  0.8666666666666668  0.1166666666666668  0.2202144434741125
  0.8833333333333333  0.1333333333333332  0.3797855565258832
  0.2833333333333332  0.1833333333333332  0.9797855565258832
  0.2666666666666668  0.1666666666666668  0.8202144434741124
  0.5833333333333333  0.2833333333333332  0.1797855565258832
  0.2833333333333332  0.1833333333333332  0.7797855565258832
  0.2666666666666668  0.1666666666666668  0.6202144434741124
  0.2833333333333332  0.2333333333333332  0.5797855565258832
  0.5833333333333331  0.2333333333333331  0.9797855565258832
  0.5666666666666668  0.2166666666666668  0.8202144434741124
  0.2666666666666668  0.2166666666666668  0.6202144434741124
  0.6666666666666667  0.7666666666666667  0.2202144434741125
  0.2833333333333332  0.2833333333333332  0.5797855565258832
  0.2666666666666668  0.2666666666666667  0.4202144434741124
  0.8666666666666666  0.0666666666666668  0.4202144434741125
  0.8833333333333332  0.0833333333333332  0.5797855565258833
  0.2833333333333332  0.2833333333333332  0.3797855565258832
  0.2666666666666668  0.2666666666666667  0.2202144434741125
  0.5666666666666668  0.2166666666666668  0.6202144434741125
  0.2666666666666667  0.2666666666666668  0.6202144434741124
  0.5833333333333331  0.2333333333333332  0.7797855565258832
  0.2833333333333332  0.2833333333333332  0.1797855565258833
  0.2666666666666668  0.2666666666666667  0.0202144434741125
  0.8833333333333332  0.0833333333333332  0.7797855565258832
  0.2833333333333332  0.2333333333333332  0.9797855565258832
  0.2666666666666668  0.2166666666666668  0.8202144434741124
  0.8666666666666666  0.0666666666666668  0.8202144434741124
  0.8833333333333332  0.0833333333333332  0.9797855565258832
  0.2833333333333332  0.2333333333333332  0.7797855565258832
  0.8666666666666666  0.0666666666666668  0.6202144434741125
  0.8666666666666668  0.1166666666666668  0.4202144434741125
  0.5833333333333333  0.1833333333333332  0.9797855565258832
  0.2666666666666668  0.3666666666666668  0.8202144434741124
  0.8166666666666670  0.9166666666666666  0.4202144434741125
  0.8333333333333334  0.9333333333333330  0.5797855565258833
  0.2833333333333332  0.5333333333333332  0.7797855565258832
  0.2666666666666668  0.5166666666666668  0.6202144434741124
  0.5666666666666668  0.1666666666666668  0.0202144434741125
  0.8166666666666670  0.9166666666666666  0.6202144434741125
  0.2833333333333332  0.5333333333333332  0.5797855565258832
  0.2666666666666668  0.5166666666666668  0.4202144434741124
  0.8333333333333334  0.9333333333333330  0.7797855565258832
  0.5833333333333333  0.1833333333333332  0.1797855565258832
  0.2833333333333332  0.5333333333333332  0.3797855565258832
  0.2666666666666668  0.5166666666666668  0.2202144434741125
  0.6833333333333331  0.8333333333333333  0.1797855565258833
  0.8166666666666670  0.9166666666666666  0.8202144434741124
  0.8333333333333334  0.9333333333333330  0.9797855565258832
  0.2833333333333332  0.5333333333333332  0.1797855565258833
  0.2666666666666668  0.5166666666666668  0.0202144434741125
  0.2666666666666668  0.5166666666666668  0.8202144434741124
  0.2833333333333332  0.5333333333333333  0.9797855565258832
  0.5833333333333331  0.1333333333333332  0.9797855565258832
  0.5666666666666668  0.1166666666666668  0.8202144434741124
  0.2833333333333331  0.5833333333333334  0.9797855565258832
  0.2666666666666668  0.5666666666666668  0.8202144434741124
  0.5666666666666668  0.1166666666666668  0.6202144434741125
  0.5833333333333331  0.1333333333333332  0.7797855565258832
  0.2833333333333332  0.5833333333333333  0.7797855565258832
  0.2666666666666668  0.5666666666666668  0.6202144434741124
  0.8166666666666670  0.9166666666666666  0.0202144434741125
  0.8333333333333334  0.9333333333333330  0.1797855565258832
  0.6666666666666667  0.8166666666666668  0.0202144434741125
  0.2833333333333332  0.5833333333333333  0.5797855565258832
  0.6833333333333331  0.8333333333333333  0.3797855565258832
  0.6666666666666667  0.8166666666666668  0.2202144434741125
  0.2833333333333332  0.5833333333333333  0.3797855565258832
  0.2666666666666668  0.5666666666666668  0.2202144434741125
  0.8166666666666670  0.9166666666666666  0.2202144434741125
  0.8333333333333334  0.9333333333333330  0.3797855565258832
  0.2833333333333332  0.5833333333333333  0.1797855565258833
  0.2666666666666668  0.5666666666666668  0.0202144434741125
  0.2666666666666668  0.5666666666666668  0.4202144434741124
  0.5666666666666668  0.1666666666666668  0.8202144434741124
  0.2833333333333331  0.4833333333333333  0.9797855565258832
  0.5666666666666668  0.1666666666666668  0.2202144434741125
  0.2833333333333332  0.4333333333333332  0.7797855565258832
  0.2666666666666669  0.4166666666666667  0.6202144434741124
  0.8333333333333334  0.9833333333333332  0.7797855565258832
  0.5666666666666668  0.1666666666666668  0.6202144434741125
  0.2833333333333332  0.4333333333333332  0.5797855565258832
  0.2666666666666668  0.4166666666666668  0.4202144434741124
  0.5833333333333331  0.1833333333333332  0.7797855565258832
  0.8166666666666669  0.9666666666666668  0.8202144434741124
  0.8333333333333334  0.9833333333333332  0.9797855565258832
  0.2833333333333332  0.4333333333333332  0.3797855565258832
  0.2666666666666668  0.4166666666666668  0.2202144434741125
  0.2833333333333332  0.4333333333333332  0.1797855565258833
  0.2666666666666668  0.4166666666666668  0.0202144434741125
  0.6833333333333332  0.7833333333333332  0.7797855565258832
  0.8666666666666668  0.0166666666666668  0.0202144434741125
  0.8833333333333332  0.0333333333333332  0.1797855565258833
  0.2833333333333332  0.3833333333333332  0.9797855565258832
  0.8166666666666669  0.9666666666666668  0.6202144434741125
  0.6666666666666667  0.7666666666666667  0.8202144434741124
  0.6833333333333332  0.7833333333333333  0.9797855565258832
  0.2666666666666669  0.4166666666666667  0.8202144434741124
  0.5833333333333331  0.1833333333333332  0.3797855565258832
  0.8166666666666669  0.9666666666666668  0.0202144434741125
  0.8333333333333334  0.9833333333333332  0.1797855565258832
  0.2833333333333332  0.4833333333333332  0.7797855565258832
  0.2666666666666669  0.4666666666666667  0.6202144434741124
  0.2833333333333332  0.4833333333333332  0.5797855565258832
  0.2666666666666669  0.4666666666666667  0.4202144434741124
  0.8166666666666669  0.9666666666666668  0.2202144434741125
  0.2666666666666669  0.4666666666666667  0.8202144434741124
  0.8333333333333334  0.9833333333333332  0.3797855565258832
  0.2666666666666669  0.4666666666666667  0.2202144434741125
  0.5666666666666668  0.1666666666666668  0.4202144434741125
  0.5833333333333333  0.1833333333333332  0.5797855565258833
  0.2833333333333332  0.4833333333333332  0.1797855565258833
  0.2666666666666669  0.4666666666666667  0.0202144434741125
  0.8166666666666669  0.9666666666666668  0.4202144434741125
  0.8333333333333334  0.9833333333333332  0.5797855565258833
  0.2833333333333332  0.4333333333333332  0.9797855565258832
  0.2833333333333332  0.4833333333333332  0.3797855565258832
  0.8333333333333331  0.8833333333333331  0.9797855565258832
  0.8833333333333333  0.1333333333333332  0.5797855565258833
  0.2666666666666668  0.1666666666666668  0.4202144434741124
  0.5666666666666669  0.3166666666666668  0.8202144434741124
  0.2333333333333332  0.9333333333333332  0.1797855565258833
  0.2166666666666668  0.9166666666666669  0.0202144434741125
  0.5833333333333333  0.3333333333333331  0.9797855565258832
  0.8666666666666668  0.2666666666666668  0.6202144434741125
  0.2333333333333333  0.8833333333333331  0.9797855565258832
  0.2166666666666669  0.8666666666666667  0.8202144434741124
  0.8833333333333333  0.2833333333333332  0.7797855565258832
  0.2333333333333333  0.8833333333333331  0.7797855565258832
  0.2166666666666669  0.8666666666666667  0.6202144434741125
  0.5666666666666668  0.3666666666666668  0.0202144434741125
  0.8666666666666668  0.2666666666666668  0.8202144434741124
  0.8833333333333333  0.2833333333333332  0.9797855565258832
  0.2333333333333333  0.8833333333333331  0.5797855565258833
  0.2166666666666669  0.8666666666666667  0.4202144434741125
  0.5833333333333333  0.3833333333333332  0.1797855565258832
  0.2333333333333333  0.8833333333333331  0.3797855565258832
  0.8833333333333332  0.2833333333333333  0.5797855565258833
  0.8666666666666668  0.2666666666666668  0.4202144434741125
  0.2166666666666668  0.9166666666666669  0.2202144434741125
  0.4833333333333332  0.8333333333333333  0.5797855565258833
  0.2333333333333332  0.9833333333333332  0.3797855565258832
  0.2166666666666668  0.9666666666666668  0.2202144434741125
  0.2333333333333332  0.9833333333333332  0.1797855565258833
  0.2166666666666668  0.9666666666666668  0.0202144434741125
  0.8666666666666668  0.2666666666666668  0.0202144434741125
  0.8833333333333333  0.2833333333333332  0.1797855565258833
  0.2333333333333332  0.9333333333333332  0.9797855565258832
  0.2166666666666668  0.9166666666666669  0.8202144434741124
  0.2166666666666669  0.8666666666666667  0.2202144434741125
  0.5666666666666669  0.3166666666666668  0.6202144434741125
  0.2333333333333332  0.9333333333333332  0.7797855565258832
  0.2166666666666668  0.9166666666666669  0.6202144434741125
  0.8666666666666668  0.2666666666666668  0.2202144434741125
  0.8833333333333333  0.2833333333333332  0.3797855565258832
  0.2333333333333332  0.9333333333333332  0.5797855565258833
  0.2166666666666668  0.9166666666666669  0.4202144434741125
  0.6833333333333331  0.7333333333333333  0.1797855565258833
  0.6666666666666667  0.7166666666666668  0.0202144434741125
  0.5833333333333333  0.3333333333333331  0.7797855565258832
  0.8833333333333332  0.2333333333333332  0.9797855565258832
  0.6833333333333331  0.6833333333333333  0.9797855565258832
  0.8666666666666668  0.3166666666666668  0.0202144434741125
  0.2166666666666668  0.8166666666666668  0.0202144434741125
  0.8833333333333332  0.3333333333333332  0.7797855565258832
  0.6666666666666667  0.6666666666666667  0.6202144434741125
  0.2333333333333331  0.7833333333333333  0.9797855565258832
  0.2166666666666668  0.7666666666666667  0.8202144434741124
  0.8666666666666668  0.3166666666666668  0.8202144434741124
  0.8833333333333332  0.3333333333333332  0.9797855565258832
  0.2333333333333332  0.7833333333333332  0.7797855565258832
  0.2166666666666668  0.7666666666666667  0.6202144434741125
  0.5666666666666668  0.3666666666666668  0.6202144434741125
  0.5833333333333333  0.3833333333333332  0.7797855565258832
  0.2333333333333332  0.7833333333333332  0.5797855565258833
  0.2166666666666668  0.7666666666666667  0.4202144434741125
  0.8666666666666668  0.3666666666666668  0.0202144434741125
  0.8833333333333332  0.3833333333333332  0.1797855565258833
  0.2333333333333332  0.7833333333333332  0.3797855565258832
  0.2166666666666668  0.7666666666666667  0.2202144434741125
  0.2333333333333332  0.8333333333333333  0.1797855565258833
  0.8666666666666668  0.3166666666666668  0.6202144434741125
  0.5833333333333333  0.3833333333333332  0.5797855565258833
  0.5666666666666668  0.3666666666666668  0.4202144434741125
  0.8833333333333332  0.3333333333333332  0.1797855565258833
  0.2333333333333333  0.8833333333333331  0.1797855565258833
  0.2166666666666669  0.8666666666666667  0.0202144434741125
  0.5666666666666668  0.3666666666666668  0.2202144434741125
  0.2333333333333332  0.8333333333333333  0.9797855565258832
  0.2166666666666668  0.8166666666666668  0.8202144434741124
  0.5833333333333333  0.3833333333333332  0.3797855565258832
  0.8666666666666668  0.3166666666666668  0.2202144434741125
  0.6666666666666667  0.6666666666666667  0.8202144434741124
  0.8833333333333332  0.3333333333333332  0.3797855565258832
  0.2166666666666668  0.8166666666666668  0.6202144434741125
  0.2333333333333332  0.8333333333333333  0.5797855565258833
  0.2166666666666668  0.8166666666666668  0.4202144434741125
  0.8666666666666668  0.3166666666666668  0.4202144434741125
  0.8833333333333332  0.3333333333333333  0.5797855565258833
  0.2333333333333332  0.8333333333333333  0.3797855565258832
  0.2166666666666668  0.8166666666666668  0.2202144434741125
  0.6833333333333331  0.6833333333333332  0.7797855565258832
  0.2333333333333332  0.8333333333333333  0.7797855565258832
  0.2833333333333332  0.1833333333333332  0.5797855565258832
  0.8666666666666666  0.2166666666666668  0.8202144434741124
  0.5666666666666669  0.3166666666666667  0.4202144434741125
  0.2833333333333332  0.1333333333333332  0.3797855565258832
  0.2666666666666668  0.1166666666666668  0.2202144434741125
  0.8666666666666668  0.1666666666666668  0.2202144434741125
  0.8833333333333332  0.1833333333333332  0.3797855565258832
  0.2833333333333332  0.1333333333333332  0.1797855565258833
  0.2666666666666668  0.1166666666666668  0.0202144434741125
  0.6833333333333331  0.7333333333333333  0.7797855565258832
  0.5666666666666668  0.2666666666666668  0.6202144434741125
  0.5833333333333333  0.2833333333333332  0.7797855565258832
  0.2833333333333332  0.0833333333333332  0.9797855565258832
  0.2666666666666668  0.0666666666666668  0.8202144434741124
  0.8666666666666668  0.1666666666666668  0.4202144434741125
  0.8833333333333332  0.1833333333333332  0.5797855565258833
  0.6666666666666667  0.7166666666666668  0.6202144434741125
  0.2833333333333332  0.0833333333333332  0.7797855565258832
  0.2666666666666668  0.0666666666666668  0.6202144434741124
  0.8666666666666668  0.1666666666666668  0.6202144434741125
  0.2666666666666668  0.1166666666666668  0.4202144434741124
  0.2833333333333332  0.1333333333333332  0.5797855565258832
  0.8833333333333332  0.1833333333333332  0.1797855565258833
  0.8666666666666668  0.1666666666666668  0.0202144434741125
  0.5666666666666668  0.2666666666666667  0.2202144434741125
  0.5833333333333333  0.2833333333333332  0.3797855565258832
  0.8666666666666668  0.1166666666666668  0.6202144434741125
  0.2833333333333332  0.1833333333333332  0.3797855565258832
  0.2666666666666668  0.1666666666666668  0.2202144434741125
  0.8833333333333333  0.1333333333333332  0.7797855565258832
  0.2833333333333332  0.1833333333333332  0.1797855565258833
  0.2666666666666668  0.1666666666666668  0.0202144434741125
  0.2833333333333332  0.0833333333333332  0.5797855565258832
  0.6833333333333331  0.7333333333333333  0.9797855565258832
  0.8666666666666668  0.1166666666666668  0.8202144434741124
  0.8833333333333333  0.1333333333333332  0.9797855565258832
  0.2833333333333332  0.1333333333333332  0.9797855565258832
  0.2666666666666668  0.1166666666666668  0.8202144434741124
  0.5666666666666668  0.2666666666666667  0.4202144434741125
  0.2833333333333332  0.1333333333333332  0.7797855565258832
  0.2666666666666668  0.1166666666666668  0.6202144434741124
  0.5833333333333331  0.2833333333333332  0.5797855565258833
  0.6666666666666667  0.7166666666666668  0.8202144434741124
  0.5833333333333333  0.3333333333333332  0.5797855565258833
  0.2666666666666668  0.0666666666666668  0.4202144434741124
  0.5666666666666668  0.2666666666666668  0.8202144434741124
  0.2666666666666668  0.0166666666666668  0.2202144434741125
  0.5666666666666669  0.3166666666666667  0.2202144434741125
  0.5833333333333333  0.3333333333333331  0.3797855565258832
  0.2833333333333332  0.0333333333333332  0.1797855565258833
  0.2666666666666668  0.0166666666666668  0.0202144434741125
  0.8666666666666666  0.2166666666666668  0.4202144434741125
  0.8833333333333332  0.2333333333333333  0.5797855565258833
  0.2333333333333332  0.9833333333333332  0.9797855565258832
  0.2166666666666668  0.9666666666666668  0.8202144434741124
  0.6833333333333331  0.7333333333333333  0.3797855565258832
  0.8666666666666666  0.2166666666666668  0.6202144434741125
  0.2333333333333332  0.9833333333333332  0.7797855565258832
  0.2166666666666668  0.9666666666666668  0.6202144434741125
  0.8833333333333332  0.2333333333333333  0.7797855565258832
  0.6666666666666667  0.7166666666666668  0.2202144434741125
  0.2333333333333332  0.9833333333333332  0.5797855565258833
  0.2166666666666668  0.9666666666666668  0.4202144434741125
  0.2833333333333332  0.0333333333333332  0.3797855565258832
  0.8833333333333332  0.2333333333333332  0.3797855565258832
  0.8666666666666666  0.2166666666666668  0.2202144434741125
  0.2666666666666668  0.0166666666666668  0.4202144434741124
  0.5833333333333333  0.2833333333333332  0.9797855565258832
  0.2833333333333332  0.0833333333333332  0.3797855565258832
  0.2666666666666668  0.0666666666666668  0.2202144434741125
  0.8666666666666668  0.1666666666666668  0.8202144434741124
  0.8833333333333332  0.1833333333333332  0.9797855565258832
  0.2833333333333332  0.0833333333333332  0.1797855565258833
  0.2666666666666668  0.0666666666666668  0.0202144434741125
  0.6833333333333331  0.7333333333333333  0.5797855565258833
  0.8833333333333332  0.1833333333333332  0.7797855565258832
  0.2833333333333332  0.0333333333333332  0.9797855565258832
  0.6666666666666667  0.7166666666666668  0.4202144434741125
  0.5666666666666669  0.3166666666666667  0.0202144434741125
  0.8666666666666666  0.2166666666666668  0.0202144434741125
  0.8833333333333332  0.2333333333333332  0.1797855565258833
  0.2833333333333332  0.0333333333333332  0.7797855565258832
  0.2666666666666668  0.0166666666666668  0.6202144434741124
  0.5833333333333333  0.3333333333333331  0.1797855565258832
  0.2833333333333332  0.0333333333333332  0.5797855565258832
  0.2666666666666668  0.0166666666666668  0.8202144434741124
  0.6833333333333331  0.6833333333333332  0.5797855565258833
  0.8166666666666669  0.8666666666666667  0.8202144434741124
  0.2833333333333332  0.6333333333333332  0.1797855565258833
  0.3166666666666668  0.1666666666666668  0.4202144434741125
  0.8166666666666669  0.5666666666666667  0.4202144434741125
  0.8333333333333331  0.5833333333333331  0.5797855565258833
  0.5333333333333332  0.9833333333333332  0.1797855565258833
  0.3333333333333332  0.1833333333333332  0.3797855565258832
  0.3166666666666668  0.1666666666666668  0.2202144434741125
  0.8166666666666669  0.5666666666666667  0.6202144434741125
  0.3333333333333332  0.1833333333333332  0.1797855565258832
  0.3166666666666668  0.1666666666666668  0.0202144434741125
  0.8333333333333331  0.5833333333333331  0.7797855565258832
  0.6833333333333332  0.9333333333333332  0.3797855565258832
  0.6666666666666667  0.9166666666666669  0.2202144434741125
  0.3333333333333331  0.1333333333333332  0.9797855565258832
  0.3166666666666668  0.1166666666666668  0.8202144434741124
  0.5166666666666667  0.9666666666666668  0.2202144434741125
  0.5333333333333332  0.9833333333333332  0.3797855565258832
  0.8166666666666669  0.5666666666666667  0.8202144434741124
  0.3333333333333332  0.1833333333333332  0.5797855565258833
  0.5166666666666667  0.9666666666666668  0.0202144434741125
  0.3166666666666668  0.1666666666666668  0.6202144434741125
  0.3333333333333332  0.1833333333333332  0.7797855565258833
  0.8166666666666669  0.5166666666666667  0.8202144434741124
  0.8333333333333331  0.5333333333333332  0.9797855565258832
  0.3333333333333332  0.2333333333333332  0.5797855565258833
  0.3166666666666668  0.2166666666666668  0.4202144434741125
  0.3333333333333332  0.2333333333333332  0.3797855565258832
  0.3166666666666668  0.2166666666666668  0.2202144434741125
  0.6833333333333332  0.9333333333333332  0.5797855565258833
  0.6666666666666667  0.9166666666666669  0.4202144434741125
  0.8333333333333331  0.5833333333333333  0.9797855565258832
  0.8166666666666669  0.5666666666666667  0.0202144434741125
  0.3333333333333332  0.2333333333333332  0.1797855565258832
  0.3166666666666668  0.2166666666666668  0.0202144434741125
  0.5166666666666668  0.9166666666666666  0.8202144434741122
  0.5333333333333334  0.9333333333333330  0.9797855565258831
  0.3333333333333332  0.1833333333333332  0.9797855565258832
  0.3166666666666668  0.1666666666666668  0.8202144434741124
  0.8166666666666669  0.5666666666666667  0.2202144434741125
  0.8333333333333331  0.5833333333333331  0.3797855565258832
  0.8333333333333331  0.5833333333333331  0.1797855565258832
  0.5333333333333334  0.9333333333333330  0.7797855565258832
  0.3333333333333331  0.1333333333333332  0.7797855565258833
  0.3333333333333331  0.1333333333333332  0.5797855565258833
  0.5333333333333332  0.9833333333333332  0.7797855565258832
  0.8166666666666669  0.6166666666666668  0.6202144434741125
  0.3333333333333332  0.0833333333333332  0.3797855565258832
  0.3166666666666668  0.0666666666666668  0.2202144434741125
  0.8333333333333334  0.6333333333333332  0.7797855565258832
  0.3333333333333332  0.0833333333333332  0.1797855565258832
  0.3166666666666668  0.0666666666666668  0.0202144434741125
  0.8166666666666669  0.6166666666666668  0.8202144434741124
  0.8333333333333331  0.6333333333333333  0.9797855565258832
  0.3333333333333332  0.0333333333333332  0.9797855565258832
  0.3166666666666668  0.0166666666666668  0.8202144434741124
  0.5166666666666667  0.9666666666666668  0.8202144434741122
  0.5333333333333332  0.9833333333333332  0.9797855565258831
  0.3333333333333332  0.0333333333333332  0.7797855565258833
  0.3166666666666668  0.0166666666666668  0.6202144434741125
  0.6833333333333331  0.8833333333333333  0.9797855565258832
  0.8166666666666669  0.6666666666666667  0.0202144434741125
  0.5166666666666667  0.9666666666666668  0.6202144434741125
  0.3166666666666668  0.0666666666666668  0.4202144434741125
  0.3333333333333332  0.0833333333333332  0.5797855565258833
  0.8333333333333334  0.6333333333333332  0.5797855565258833
  0.3166666666666668  0.1166666666666668  0.4202144434741125
  0.8166666666666669  0.6166666666666668  0.0202144434741125
  0.8333333333333334  0.6333333333333332  0.1797855565258832
  0.3333333333333331  0.1333333333333332  0.3797855565258832
  0.3166666666666668  0.1166666666666668  0.2202144434741125
  0.5166666666666667  0.9666666666666668  0.4202144434741125
  0.5333333333333332  0.9833333333333332  0.5797855565258833
  0.3333333333333331  0.1333333333333332  0.1797855565258832
  0.3166666666666668  0.1166666666666668  0.6202144434741125
  0.3166666666666668  0.1166666666666668  0.0202144434741125
  0.8333333333333334  0.6333333333333332  0.3797855565258832
  0.3333333333333332  0.0833333333333332  0.9797855565258832
  0.3166666666666668  0.0666666666666668  0.8202144434741124
  0.6833333333333332  0.9333333333333332  0.1797855565258833
  0.6666666666666667  0.9166666666666669  0.0202144434741125
  0.3333333333333332  0.0833333333333332  0.7797855565258833
  0.3166666666666668  0.0666666666666668  0.6202144434741125
  0.8166666666666669  0.6166666666666668  0.4202144434741125
  0.8166666666666669  0.6166666666666668  0.2202144434741125
  0.8333333333333331  0.6833333333333332  0.1797855565258832
  0.3166666666666668  0.2166666666666668  0.6202144434741125
  0.5166666666666668  0.9166666666666666  0.6202144434741125
  0.3333333333333331  0.3833333333333332  0.7797855565258833
  0.3166666666666668  0.3666666666666668  0.6202144434741125
  0.6833333333333333  0.9833333333333329  0.1797855565258833
  0.6666666666666667  0.9666666666666668  0.0202144434741125
  0.3333333333333331  0.3833333333333332  0.5797855565258833
  0.3166666666666668  0.3666666666666668  0.4202144434741125
  0.8166666666666669  0.4666666666666667  0.2202144434741125
  0.8333333333333331  0.4833333333333332  0.3797855565258832
  0.3333333333333331  0.3833333333333332  0.3797855565258832
  0.3166666666666668  0.3666666666666668  0.2202144434741125
  0.5166666666666668  0.8666666666666667  0.8202144434741122
  0.5333333333333334  0.8833333333333331  0.9797855565258831
  0.3333333333333331  0.3833333333333332  0.1797855565258832
  0.3166666666666668  0.3666666666666668  0.0202144434741125
  0.8166666666666669  0.4666666666666667  0.4202144434741125
  0.8333333333333331  0.4833333333333332  0.5797855565258833
  0.3333333333333332  0.3333333333333332  0.9797855565258832
  0.8333333333333331  0.4833333333333332  0.1797855565258832
  0.8166666666666669  0.4666666666666667  0.0202144434741125
  0.3166666666666668  0.3666666666666668  0.8202144434741124
  0.3333333333333331  0.3833333333333332  0.9797855565258832
  0.8333333333333331  0.4333333333333333  0.5797855565258833
  0.6666666666666667  0.9666666666666668  0.2202144434741125
  0.3333333333333332  0.4333333333333332  0.7797855565258833
  0.3166666666666668  0.4166666666666667  0.6202144434741125
  0.5166666666666668  0.8666666666666667  0.4202144434741125
  0.5333333333333334  0.8833333333333331  0.5797855565258833
  0.8166666666666667  0.4166666666666668  0.6202144434741125
  0.3333333333333332  0.4333333333333332  0.5797855565258833
  0.3166666666666668  0.3166666666666668  0.8202144434741124
  0.3166666666666668  0.4166666666666668  0.4202144434741125
  0.3333333333333332  0.4333333333333332  0.3797855565258832
  0.3166666666666668  0.4166666666666668  0.2202144434741125
  0.8166666666666667  0.4166666666666668  0.8202144434741124
  0.8333333333333331  0.4333333333333332  0.9797855565258832
  0.3333333333333332  0.4333333333333332  0.1797855565258832
  0.3166666666666668  0.4166666666666668  0.0202144434741125
  0.5166666666666668  0.8666666666666667  0.6202144434741125
  0.5333333333333334  0.8833333333333331  0.7797855565258832
  0.8333333333333331  0.4333333333333332  0.7797855565258832
  0.3333333333333332  0.2333333333333332  0.7797855565258833
  0.5166666666666668  0.9166666666666666  0.0202144434741125
  0.3333333333333332  0.3333333333333332  0.7797855565258833
  0.8333333333333331  0.5333333333333332  0.3797855565258832
  0.3333333333333332  0.2833333333333332  0.5797855565258833
  0.3166666666666668  0.2666666666666667  0.4202144434741125
  0.6833333333333332  0.9333333333333332  0.7797855565258832
  0.5166666666666668  0.9166666666666666  0.4202144434741125
  0.5333333333333334  0.9333333333333330  0.5797855565258833
  0.3333333333333332  0.2833333333333332  0.3797855565258832
  0.3166666666666668  0.2666666666666667  0.2202144434741125
  0.8166666666666669  0.5166666666666667  0.4202144434741125
  0.8333333333333331  0.5333333333333332  0.5797855565258833
  0.3333333333333332  0.2833333333333332  0.1797855565258832
  0.3166666666666668  0.2666666666666667  0.0202144434741125
  0.6666666666666667  0.9166666666666669  0.6202144434741125