k-points along high symmetry lines
100  
Line-mode
rec
0.000000 0.000000 0.000000 !GM
0.333333 0.333333 0.000000 !K

0.333333 0.333333 0.000000 !K
0.500000 0.000000 0.000000 !M

0.500000 0.000000 0.000000 !M
0.000000 0.000000 0.000000 !GM
