# Si 4nd

units			metal
atom_style		atomic
newton          off
boundary		p p p

#box             tilt large
read_data		structure.in

mass			1 72.64
mass            2 121.76
mass			3 127.60

pair_style		nequip
pair_coeff		* * ../../../../../frozen_model.pb Ge Sb Te

#velocity		all create 2000.0 1031
compute         pe all pe/atom
compute         2 all pressure thermo_temp

read_dump       init.dump 1020000 x y z vx vy vz box yes replace yes
#fix				1 all nve
fix				1 all nvt temp 600 100 1.00
#fix				1 all npt temp 700 300 1.0 aniso 0 0 100.0

thermo_style    custom step temp etotal pe ke press pxx pyy pzz pyz pxz pxy vol
thermo_modify   format float %.8g
thermo			100
log             pre-log.lammps

#dump			myDump all atom 100 atom.dump
dump			1 all custom 100 pre-out.dump id element mass type x y z fx fy fz vx vy vz c_pe
dump_modify		1 element Ge Sb Te

timestep		0.01
run				5000

# VACF
unfix           1
fix				1 all nvt temp 100 100 1.00

timestep        0.01
run             5000

thermo          5
log             log.lammps

undump          1
dump            1 all custom 5 out.dump id element mass type x y z fx fy fz vx vy vz c_pe
dump_modify     1 element Ge Sb Te

timestep        0.01
run             10000
