GeSbTe (4_kooi)                         
   1.00000000000000     
     4.2339261080494630    0.0000000000000070    0.0000000000000007
     2.1169630540246986    3.6666875673169774    0.0000000000000000
    -0.0000000000000000   -0.0000000000000008   16.8210684776957748
   Ge   Sb   Te
     2     2     5
Direct
  0.3333333333333357  0.3333333333333357  0.1010722173705624
  0.6666666666666643  0.6666666666666643  0.8989277826294163
 -0.0000000000000000 -0.0000000000000000  0.3188269812160927
  0.0000000000000000  0.0000000000000000  0.6811730187838646
  0.0000000000000000  0.0000000000000000  0.0000000000000000
  0.6666666666666643  0.6666666666666643  0.1999201447576850
  0.3333333333333357  0.3333333333333357  0.4217442453937505
  0.6666666666666643  0.6666666666666643  0.5782557546061997
  0.3333333333333357  0.3333333333333357  0.8000798552422724

