GeSbTe(3_ferro_2)                       
   1.00000000000000     
     4.1743048356135679    0.0000000000000000    0.0000000000000000
     2.0871524178067840    3.6150540307815988    0.0000000000000001
     0.0000000000000000   -0.0000000000000010   18.0343656547872193
   Ge   Sb   Te
     2     2     5
Direct
  0.3333333333333357  0.3333333333333357  0.4441292019915368
  0.6666666666666643  0.6666666666666643  0.6651918228635535
  0.3333333333333357  0.3333333333333357  0.1169103952091942
  0.6666666666666643  0.6666666666666643  0.8945635544112913
 -0.0000000000000000 -0.0000000000000000  0.0028178687026565
  0.6666666666666643  0.6666666666666643  0.2136953320163081
  0.0000000000000000  0.0000000000000000  0.3615015171996278
  0.0000000000000000  0.0000000000000000  0.5822465201363435
  0.3333333333333357  0.3333333333333357  0.7951119229228106
 
  0.00000000E+00  0.00000000E+00  0.00000000E+00
  0.00000000E+00  0.00000000E+00  0.00000000E+00
  0.00000000E+00  0.00000000E+00  0.00000000E+00
  0.00000000E+00  0.00000000E+00  0.00000000E+00
  0.00000000E+00  0.00000000E+00  0.00000000E+00
  0.00000000E+00  0.00000000E+00  0.00000000E+00
  0.00000000E+00  0.00000000E+00  0.00000000E+00
  0.00000000E+00  0.00000000E+00  0.00000000E+00
  0.00000000E+00  0.00000000E+00  0.00000000E+00
