supercell-16x16x4
1.0
       67.7428207397         0.0000000000         0.0000000000
        0.0000000000        58.6670059398         0.0000000000
        0.0000000000         0.0000000000        67.2842712402
   Ge   Sb   Te
 2048 2048 5120
Cartesian
     2.116963148         1.222229362         1.700142622
    63.508892059         9.777834892        15.120925903
    61.391929626         8.555604935         1.700142622
    27.520519257         8.555604935        52.163349152
    29.637483597         9.777834892        65.584129333
    29.637483597        12.222292900         1.700142622
    31.754446030        13.444522858        15.120925903
    61.391929626         6.111146450        65.584129333
    59.274967194         4.888917446        52.163349152
    29.637483597        12.222292900        18.521209717
    31.754446030        13.444522858        31.941993713
    29.637483597        12.222292900        35.342281342
    31.754446030        13.444522858        48.763057709
    61.391929626         6.111146450        48.763057709
    59.274967194         4.888917446        35.342281342
    29.637483597        12.222292900        52.163349152
    31.754446030        13.444522858        65.584129333
    61.391929626         6.111146450        31.941993713
    31.754446030        15.888981819         1.700142622
    33.871406555        17.111209869        15.120925903
    29.637483597         9.777834892        48.763057709
    27.520519257         8.555604935        35.342281342
    29.637483597         9.777834892        31.941993713
    52.924079895        15.888981819        35.342281342
    23.286594391         1.222229362        52.163349152
    25.403556824         2.444458723        65.584129333
    65.625854492        13.444522858        15.120925903
    63.508892059        12.222292900         1.700142622
    25.403556824         4.888917446         1.700142622
    27.520519257         6.111146450        15.120925903
    25.403556824         4.888917446        18.521209717
    27.520519257         6.111146450        31.941993713
    63.508892059         9.777834892        65.584129333
    59.274967194         4.888917446        18.521209717
    61.391929626         8.555604935        52.163349152
    27.520519257         6.111146450        48.763057709
    63.508892059         9.777834892        48.763057709
    25.403556824         4.888917446        52.163349152
    27.520519257         6.111146450        65.584129333
    61.391929626         8.555604935        35.342281342
    27.520519257         8.555604935         1.700142622
    29.637483597         9.777834892        15.120925903
    63.508892059         9.777834892        31.941993713
    61.391929626         8.555604935        18.521209717
    25.403556824         4.888917446        35.342281342
    31.754446030        15.888981819        18.521209717
    33.871406555        17.111209869        31.941993713
    61.391929626         6.111146450        15.120925903
    57.158004761         1.222229362         1.700142622
    35.988372803        23.222356796        35.342281342
    38.105335236        24.444585800        48.763057709
    86.795486450        57.444778442        65.584129333
    84.678520203        56.222549438        52.163349152
    35.988372803        23.222356796        52.163349152
    38.105335236        24.444585800        65.584129333
    38.105335236        26.889045715         1.700142622
    40.222297668        28.111274719        15.120925903
    38.105335236        24.444585800        31.941993713
    86.795486450        57.444778442        48.763057709
    38.105335236        26.889045715        18.521209717
    40.222297668        28.111274719        31.941993713
    38.105335236        26.889045715        35.342281342
    40.222297668        28.111274719        48.763057709
    86.795486450        57.444778442        31.941993713
    84.678520203        56.222549438        18.521209717
    38.105335236        26.889045715        52.163349152
    40.222297668        28.111274719        65.584129333
    40.222297668        30.555732727         1.700142622
    84.678520203        56.222549438        35.342281342
    25.403556824         2.444458723        48.763057709
    35.988372803        23.222356796        18.521209717
    38.105335236        24.444585800        15.120925903
    59.274967194         4.888917446         1.700142622
    31.754446030        15.888981819        35.342281342
    33.871406555        17.111209869        48.763057709
    31.754446030        15.888981819        52.163349152
    33.871406555        17.111209869        65.584129333
    59.274967194         2.444458723        65.584129333
    57.158004761         1.222229362        52.163349152
    33.871410370        19.555669785         1.700142622
    35.988372803        20.777898788        15.120925903
    59.274967194         2.444458723        15.120925903
    33.871410370        19.555669785        18.521209717
    59.274967194         2.444458723        48.763057709
    57.158004761         1.222229362        35.342281342
    33.871410370        19.555669785        35.342281342
    35.988372803        20.777898788        48.763057709
    33.871410370        19.555669785        52.163349152
    35.988372803        20.777898788        65.584129333
    59.274967194         2.444458723        31.941993713
    57.158004761         1.222229362        18.521209717
    35.988372803        23.222356796         1.700142622
    35.988372803        20.777898788        31.941993713
    42.339260101        31.777963638        15.120925903
    23.286594391         1.222229362        35.342281342
    65.625854492        13.444522858        31.941993713
    42.339260101        41.555797577         1.700142622
    44.456222534        42.778026581        15.120925903
    69.859779358        23.222356796        18.521209717
    42.339260101        41.555797577        18.521209717
    44.456222534        42.778026581        31.941993713
    71.976745605        24.444585800        15.120925903
    69.859779358        23.222356796         1.700142622
    42.339260101        41.555797577        35.342281342
    44.456222534        42.778026581        48.763057709
    42.339260101        41.555797577        52.163349152
    44.456222534        42.778026581        65.584129333
    69.859779358        20.777898788        65.584129333
    67.742820740        19.555669785        52.163349152
    44.456222534        45.222484589         1.700142622
    46.573184967        46.444713593        15.120925903
    44.456222534        45.222484589        18.521209717
    46.573184967        46.444713593        31.941993713
    69.859779358        20.777898788        48.763057709
    67.742820740        19.555669785        35.342281342
    71.976745605        24.444585800        31.941993713
    42.339260101        39.111339569        65.584129333
    40.222297668        37.889106750        52.163349152
    69.859779358        23.222356796        35.342281342
    40.222297668        35.444652557        15.120925903
    74.093704224        28.111274719        31.941993713
    71.976745605        26.889045715        18.521209717
    38.105335236        34.222419739        18.521209717
    40.222297668        35.444652557        31.941993713
    38.105335236        34.222419739        35.342281342
    40.222297668        35.444652557        48.763057709
    74.093704224        28.111274719        15.120925903
    71.976745605        26.889045715         1.700142622
    44.456222534        45.222484589        35.342281342
    38.105335236        34.222419739        52.163349152
    40.222297668        37.889106750         1.700142622
    42.339260101        39.111339569        15.120925903
    71.976745605        24.444585800        65.584129333
    69.859779358        23.222356796        52.163349152
    40.222297668        37.889106750        18.521209717
    42.339260101        39.111339569        31.941993713
    40.222297668        37.889106750        35.342281342
    42.339260101        39.111339569        48.763057709
    71.976745605        24.444585800        48.763057709
    40.222297668        35.444652557        65.584129333
    46.573184967        46.444713593        48.763057709
    44.456222534        45.222484589        52.163349152
    46.573184967        46.444713593        65.584129333
    48.690151215        52.555858612        52.163349152
    50.807113647        53.778091431        65.584129333
    50.807113647        56.222549438         1.700142622
    52.924076080        57.444778442        15.120925903
    67.742820740        17.111209869        15.120925903
    65.625854492        15.888981819         1.700142622
    50.807113647        56.222549438        18.521209717
    52.924076080        57.444778442        31.941993713
    65.625854492        13.444522858        65.584129333
    65.625854492        15.888981819        18.521209717
    50.807113647        56.222549438        35.342281342
    63.508892059        12.222292900        52.163349152
    50.807113647        56.222549438        52.163349152
    52.924076080        57.444778442        65.584129333
    65.625854492        13.444522858        48.763057709
    63.508892059        12.222292900        35.342281342
    23.286594391         1.222229362         1.700142622
    25.403556824         2.444458723        15.120925903
    23.286594391         1.222229362        18.521209717
    25.403556824         2.444458723        31.941993713
    52.924076080        57.444778442        48.763057709
    63.508892059        12.222292900        18.521209717
    67.742820740        17.111209869        31.941993713
    48.690151215        52.555858612        35.342281342
    69.859779358        20.777898788        31.941993713
    67.742820740        19.555669785        18.521209717
    46.573184967        48.889171600         1.700142622
    48.690147400        50.111404419        15.120925903
    69.859779358        20.777898788        15.120925903
    46.573184967        48.889171600        18.521209717
    48.690147400        50.111404419        31.941993713
    67.742820740        19.555669785         1.700142622
    46.573184967        48.889171600        35.342281342
    50.807113647        53.778091431        48.763057709
    48.690147400        50.111404419        48.763057709
    65.625854492        15.888981819        52.163349152
    46.573184967        48.889171600        52.163349152
    48.690147400        50.111404419        65.584129333
    48.690151215        52.555858612         1.700142622
    50.807113647        53.778091431        15.120925903
    67.742820740        17.111209869        48.763057709
    65.625854492        15.888981819        35.342281342
    48.690151215        52.555858612        18.521209717
    50.807113647        53.778091431        31.941993713
    67.742820740        17.111209869        65.584129333
    38.105335236        34.222419739         1.700142622
    86.795486450        57.444778442        15.120925903
    40.222297668        30.555732727        18.521209717
    74.093711853        35.444652557        48.763057709
    71.976737976        34.222419739        35.342281342
    31.754446030         8.555604935         1.700142622
    33.871410370         9.777834892        15.120925903
    31.754446030         8.555604935        18.521209717
    33.871410370         9.777834892        31.941993713
    74.093711853        35.444652557        31.941993713
    71.976737976        34.222419739        18.521209717
    31.754446030         8.555604935        35.342281342
    33.871410370         9.777834892        48.763057709
    31.754446030         8.555604935        52.163349152
    33.871410370         9.777834892        65.584129333
    74.093711853        35.444652557        15.120925903
    71.976737976        34.222419739         1.700142622
    33.871410370        12.222292900         1.700142622
    35.988372803        13.444522858        15.120925903
    33.871410370        12.222292900        18.521209717
    35.988372803        13.444522858        31.941993713
    71.976745605        31.777963638        65.584129333
    31.754446030         6.111146450        65.584129333
    29.637483597         4.888917446        52.163349152
    71.976737976        34.222419739        52.163349152
    31.754446030         6.111146450        48.763057709
    27.520521164         1.222229362         1.700142622
    29.637483597         2.444458723        15.120925903
    76.210670471        39.111339569        48.763057709
    74.093704224        37.889106750        35.342281342
    27.520521164         1.222229362        18.521209717
    29.637483597         2.444458723        31.941993713
    27.520521164         1.222229362        35.342281342
    29.637483597         2.444458723        48.763057709
    76.210670471        39.111339569        31.941993713
    69.859779358        30.555732727        52.163349152
    74.093704224        37.889106750        18.521209717
    29.637483597         2.444458723        65.584129333
    29.637483597         4.888917446         1.700142622
    31.754446030         6.111146450        15.120925903
    76.210670471        39.111339569        15.120925903
    74.093704224        37.889106750         1.700142622
    29.637483597         4.888917446        18.521209717
    31.754446030         6.111146450        31.941993713
    74.093711853        35.444652557        65.584129333
    29.637483597         4.888917446        35.342281342
    27.520521164         1.222229362        52.163349152
    33.871410370        12.222292900        35.342281342
    35.988372803        13.444522858        48.763057709
    71.976745605        31.777963638        48.763057709
    67.742820740        26.889045715        35.342281342
    38.105335236        19.555669785        52.163349152
    40.222297668        20.777898788        65.584129333
    69.859779358        28.111274719        31.941993713
    40.222297668        23.222356796         1.700142622
    42.339260101        24.444585800        15.120925903
    67.742820740        26.889045715        18.521209717
    40.222297668        23.222356796        18.521209717
    42.339260101        24.444585800        31.941993713
    69.859779358        28.111274719        48.763057709
    69.859779358        28.111274719        15.120925903
    40.222297668        23.222356796        35.342281342
    42.339260101        24.444585800        48.763057709
    40.222297668        23.222356796        52.163349152
    42.339260101        24.444585800        65.584129333
    67.742820740        24.444585800        65.584129333
    65.625854492        23.222356796        52.163349152
    42.339263916        26.889045715         1.700142622
    44.456222534        28.111274719        15.120925903
    42.339263916        26.889045715        18.521209717
    67.742820740        26.889045715         1.700142622
    57.158000946        57.444778442        65.584129333
    40.222297668        20.777898788        48.763057709
    40.222297668        20.777898788        31.941993713
    33.871410370        12.222292900        52.163349152
    35.988372803        13.444522858        65.584129333
    69.859779358        30.555732727        35.342281342
    35.988372803        15.888981819         1.700142622
    38.105335236        17.111209869        15.120925903
    71.976745605        31.777963638        31.941993713
    69.859779358        30.555732727        18.521209717
    35.988372803        15.888981819        18.521209717
    38.105335236        17.111209869        31.941993713
    38.105335236        19.555669785        35.342281342
    35.988372803        15.888981819        35.342281342
    71.976745605        31.777963638        15.120925903
    69.859779358        30.555732727         1.700142622
    35.988372803        15.888981819        52.163349152
    38.105335236        17.111209869        65.584129333
    38.105335236        19.555669785         1.700142622
    40.222297668        20.777898788        15.120925903
    69.859779358        28.111274719        65.584129333
    67.742820740        26.889045715        52.163349152
    38.105335236        19.555669785        18.521209717
    38.105335236        17.111209869        48.763057709
    84.678520203        56.222549438         1.700142622
    55.041038513        56.222549438        52.163349152
    76.210670471        39.111339569        65.584129333
    46.573188782        39.111339569        31.941993713
    82.561561584        50.111404419        65.584129333
    80.444595337        48.889171600        52.163349152
    44.456222534        37.889106750        35.342281342
    46.573188782        39.111339569        48.763057709
    82.561561584        50.111404419        48.763057709
    44.456222534        37.889106750        52.163349152
    46.573188782        39.111339569        65.584129333
    80.444595337        48.889171600        35.342281342
    46.573184967        41.555797577         1.700142622
    48.690151215        42.778026581        15.120925903
    82.561561584        50.111404419        31.941993713
    80.444595337        48.889171600        18.521209717
    46.573184967        41.555797577        18.521209717
    48.690151215        42.778026581        31.941993713
    46.573184967        41.555797577        35.342281342
    48.690151215        42.778026581        48.763057709
    82.561561584        50.111404419        15.120925903
    80.444595337        48.889171600         1.700142622
    44.456222534        37.889106750        18.521209717
    46.573188782        39.111339569        15.120925903
    44.456222534        37.889106750         1.700142622
    82.561553955        52.555858612         1.700142622
    42.339260101        31.777963638        31.941993713
    84.678527832        53.778091431        65.584129333
    40.222297668        30.555732727        35.342281342
    42.339260101        31.777963638        48.763057709
    82.561553955        52.555858612        52.163349152
    40.222297668        30.555732727        52.163349152
    42.339260101        31.777963638        65.584129333
    84.678527832        53.778091431        48.763057709
    82.561553955        52.555858612        35.342281342
    46.573184967        41.555797577        52.163349152
    42.339260101        34.222419739         1.700142622
    42.339260101        34.222419739        18.521209717
    44.456222534        35.444652557        31.941993713
    84.678527832        53.778091431        31.941993713
    82.561553955        52.555858612        18.521209717
    42.339260101        34.222419739        35.342281342
    44.456222534        35.444652557        48.763057709
    42.339260101        34.222419739        52.163349152
    44.456222534        35.444652557        65.584129333
    84.678527832        53.778091431        15.120925903
    44.456222534        35.444652557        15.120925903
    48.690151215        42.778026581        65.584129333
    48.690147400        45.222484589         1.700142622
    50.807113647        46.444713593        15.120925903
    52.924076080        52.555858612         1.700142622
    55.041038513        53.778091431        15.120925903
    52.924076080        52.555858612        18.521209717
    55.041038513        53.778091431        31.941993713
    78.327636719        42.778026581        48.763057709
    76.210670471        41.555797577        35.342281342
    52.924076080        52.555858612        35.342281342
    55.041038513        53.778091431        48.763057709
    52.924076080        52.555858612        52.163349152
    76.210670471        41.555797577        52.163349152
    55.041038513        53.778091431        65.584129333
    76.210670471        41.555797577        18.521209717
    55.041038513        56.222549438         1.700142622
    57.158000946        57.444778442        15.120925903
    78.327636719        42.778026581        15.120925903
    55.041038513        56.222549438        18.521209717
    57.158000946        57.444778442        31.941993713
    76.210670471        41.555797577         1.700142622
    55.041038513        56.222549438        35.342281342
    57.158000946        57.444778442        48.763057709
    78.327636719        42.778026581        31.941993713
    74.093704224        37.889106750        52.163349152
    78.327636719        42.778026581        65.584129333
    50.807109833        48.889171600        52.163349152
    80.444595337        46.444713593        65.584129333
    78.327629089        45.222484589        52.163349152
    48.690147400        45.222484589        18.521209717
    50.807113647        46.444713593        31.941993713
    48.690147400        45.222484589        35.342281342
    50.807113647        46.444713593        48.763057709
    80.444595337        46.444713593        48.763057709
    78.327629089        45.222484589        35.342281342
    48.690147400        45.222484589        52.163349152
    52.924076080        50.111404419        65.584129333
    50.807113647        46.444713593        65.584129333
    50.807109833        48.889171600         1.700142622
    52.924076080        50.111404419        15.120925903
    78.327629089        45.222484589        18.521209717
    50.807109833        48.889171600        18.521209717
    52.924076080        50.111404419        31.941993713
    80.444595337        46.444713593        15.120925903
    78.327629089        45.222484589         1.700142622
    50.807109833        48.889171600        35.342281342
    52.924076080        50.111404419        48.763057709
    80.444595337        46.444713593        31.941993713
    71.976745605        26.889045715        35.342281342
    38.105335236        31.777963638        65.584129333
    35.988372803        30.555732727        52.163349152
    25.403556824        17.111209869        15.120925903
    69.859786987        13.444522858        15.120925903
    67.742820740        12.222292900         1.700142622
    23.286594391        15.888981819        18.521209717
    25.403556824        17.111209869        31.941993713
    67.742820740         9.777834892        65.584129333
    23.286594391        15.888981819        35.342281342
    25.403556824        17.111209869        48.763057709
    65.625854492         8.555604935        52.163349152
    23.286594391        15.888981819        52.163349152
    25.403556824        17.111209869        65.584129333
    67.742820740         9.777834892        48.763057709
    65.625854492         8.555604935        35.342281342
    25.403556824        19.555669785         1.700142622
    27.520519257        20.777898788        15.120925903
    25.403556824        19.555669785        18.521209717
    27.520519257        20.777898788        31.941993713
    67.742820740         9.777834892        31.941993713
    65.625854492         8.555604935        18.521209717
    23.286594391        15.888981819         1.700142622
    23.286594391        13.444522858        65.584129333
    21.169630051        12.222292900        52.163349152
    67.742820740        12.222292900        18.521209717
    21.169631958         9.777834892        15.120925903
    71.976745605        17.111209869        15.120925903
    19.052667618         8.555604935        18.521209717
    21.169631958         9.777834892        31.941993713
    69.859779358        15.888981819         1.700142622
    19.052667618         8.555604935        35.342281342
    21.169631958         9.777834892        48.763057709
    69.859786987        13.444522858        65.584129333
    67.742820740        12.222292900        52.163349152
    25.403556824        19.555669785        35.342281342
    19.052667618         8.555604935        52.163349152
    21.169630051        12.222292900         1.700142622
    23.286594391        13.444522858        15.120925903
    69.859786987        13.444522858        48.763057709
    67.742820740        12.222292900        35.342281342
    21.169630051        12.222292900        18.521209717
    23.286594391        13.444522858        31.941993713
    21.169630051        12.222292900        35.342281342
    23.286594391        13.444522858        48.763057709
    69.859786987        13.444522858        31.941993713
    21.169631958         9.777834892        65.584129333
    27.520519257        20.777898788        48.763057709
    25.403556824        19.555669785        52.163349152
    27.520519257        20.777898788        65.584129333
    29.637483597        26.889045715        52.163349152
    31.754446030        28.111274719        65.584129333
    31.754444122        30.555732727         1.700142622
    33.871410370        31.777963638        15.120925903
    63.508895874         2.444458723        65.584129333
    61.391929626         1.222229362        52.163349152
    31.754444122        30.555732727        18.521209717
    33.871410370        31.777963638        31.941993713
    31.754444122        30.555732727        35.342281342
    63.508892059         4.888917446         1.700142622
    33.871410370        31.777963638        48.763057709
    61.391929626         1.222229362        35.342281342
    31.754444122        30.555732727        52.163349152
    33.871410370        31.777963638        65.584129333
    63.508895874         2.444458723        31.941993713
    33.871406555        34.222419739         1.700142622
    35.988372803        35.444652557        15.120925903
    61.391929626         1.222229362        18.521209717
    33.871406555        34.222419739        18.521209717
    35.988372803        35.444652557        31.941993713
    63.508895874         2.444458723        48.763057709
    19.052667618         8.555604935         1.700142622
    65.625862122         6.111146450        15.120925903
    29.637483597        26.889045715        35.342281342
    67.742820740         9.777834892        15.120925903
    65.625854492         8.555604935         1.700142622
    27.520519257        23.222356796         1.700142622
    29.637481689        24.444585800        15.120925903
    27.520519257        23.222356796        18.521209717
    29.637481689        24.444585800        31.941993713
    65.625862122         6.111146450        65.584129333
    63.508892059         4.888917446        52.163349152
    27.520519257        23.222356796        35.342281342
    31.754446030        28.111274719        48.763057709
    29.637481689        24.444585800        48.763057709
    27.520519257        23.222356796        52.163349152
    29.637481689        24.444585800        65.584129333
    63.508892059         4.888917446        35.342281342
    29.637483597        26.889045715         1.700142622
    31.754446030        28.111274719        15.120925903
    65.625862122         6.111146450        31.941993713
    63.508892059         4.888917446        18.521209717
    29.637483597        26.889045715        18.521209717
    31.754446030        28.111274719        31.941993713
    65.625862122         6.111146450        48.763057709
    63.508895874         2.444458723        15.120925903
    69.859779358        15.888981819        18.521209717
    19.052667618         6.111146450        65.584129333
    78.327636719        28.111274719        31.941993713
    76.210670471        26.889045715        18.521209717
    35.988368988        45.222484589        35.342281342
    38.105335236        46.444713593        48.763057709
    35.988368988        45.222484589        52.163349152
    38.105335236        46.444713593        65.584129333
    78.327636719        28.111274719        15.120925903
    76.210670471        26.889045715         1.700142622
    38.105331421        48.889171600         1.700142622
    40.222297668        50.111404419        15.120925903
    38.105331421        48.889171600        18.521209717
    40.222297668        50.111404419        31.941993713
    76.210670471        24.444585800        65.584129333
    74.093704224        23.222356796        52.163349152
    38.105331421        48.889171600        35.342281342
    40.222297668        50.111404419        48.763057709
    76.210670471        24.444585800        48.763057709
    38.105331421        48.889171600        52.163349152
    40.222297668        50.111404419        65.584129333
    38.105335236        46.444713593        31.941993713
    35.988368988        45.222484589        18.521209717
    38.105335236        46.444713593        15.120925903
    35.988368988        45.222484589         1.700142622
    31.754444122        37.889106750        35.342281342
    33.871410370        39.111339569        48.763057709
    80.444602966        31.777963638        31.941993713
    78.327629089        30.555732727        18.521209717
    31.754444122        37.889106750        52.163349152
    33.871410370        39.111339569        65.584129333
    33.871406555        41.555797577         1.700142622
    35.988372803        42.778026581        15.120925903
    80.444602966        31.777963638        15.120925903
    74.093704224        23.222356796        35.342281342
    78.327629089        30.555732727         1.700142622
    35.988372803        42.778026581        31.941993713
    78.327636719        28.111274719        65.584129333
    33.871406555        41.555797577        35.342281342
    35.988372803        42.778026581        48.763057709
    76.210670471        26.889045715        52.163349152
    33.871406555        41.555797577        52.163349152
    35.988372803        42.778026581        65.584129333
    78.327636719        28.111274719        48.763057709
    76.210670471        26.889045715        35.342281342
    33.871406555        41.555797577        18.521209717
    40.222293854        52.555858612         1.700142622