Ge Sb Te 
 1.0000000000000000
    72.1695600000000042    0.0000000000000000    0.0000000000000000
     0.0000000000000000   72.1695600000000042    0.0000000000000000
     0.0000000000000000    0.0000000000000000   72.1695600000000042
 Ge  Sb  Te 
 2765 2765 6912
Direct
  0.9193945480615373  0.1214920805946440  0.3738847791229432
  0.8734859960348933  0.1665937827527284  0.8718883695563614
  0.9610755559546157  0.4190908188992700  0.0446696640522680
  0.0806910836092114  0.7129487833928876  0.8715973881509046
  0.3353934816839676  0.7499283631492280  0.8347078740676817
  0.5841257726941941  0.2946588561714939  0.6246234562050814
  0.1653370202063030  0.1274613562837296  0.7034309201829690
  0.7527564252851201  0.5414388005136792  0.6214240463707967
  0.7948766765378644  0.8663915922447081  0.8293371886983930
  0.8318714981773478  0.0471434216863730  0.5443860264632346
  0.0392930204922962 -0.0007210020401953  0.2118774175705103
  0.5420263058275540  0.1199550059609619  0.8380943433769029
  0.2523141335488258  0.4146152477581961  0.4926509181987531
  0.9547016775493713  0.2944676398193365  0.2432978668568854
  0.9581158593733978  0.7075185161167672  0.2495608952029083
  0.7522686850245449  0.5057506239472709  0.9980288088218910
  0.8359784928715098  0.2429459179188566  0.1643185852872042
  0.5857580398162328  0.8393857465668351  0.0892815475111668
  0.5020454607177873  0.0388862007749528  0.9566803511064775
  0.7917867311370610  0.3347269957028974  0.9545367880862790
  0.5008177963119076  0.3373596846094115  0.8327832399144458
  0.2087126483797324  0.4534432522520575  0.2518707333119393
  0.9221824270509617  0.3737974847013062  0.5374551265104013
  0.2074932977282943  0.5849599193898368  0.8741940507881716
  0.4144489726693636  0.1646885473598564  0.9149633169441520
  0.3725060815113740  0.2499267003983397  0.5436807429614369
  0.1282573982715150  0.5037414666238785  0.3772851046895672
  0.4140956381055946  0.7863911045044476  0.5395294082435864
  0.6210332999120404  0.5023018014797375  0.4630622661410156
  0.5055954338643605  0.7462370561771473  0.7487256400066732
  0.9140723595931580  0.8723192991615856  0.9620870627450133
  0.1247812789768983  0.9207192062692360  0.1203047378978062
  0.2096493313801553  0.4245571124446373  0.9607665614145353
  0.9532717117854120  0.3390889455332692  0.4596383849368071
  0.5853368095911905  0.2482584070070539  0.5024999459605961
  0.6678563649272630  0.4947861674645100  0.9948751246370353
  0.6271383669236725  0.9573496083390282  0.5801130005503705
  0.9158542742951460  0.5505964010311273  0.1250588198126745
  0.9594017200603688  0.4954886797148271  0.7096703928914073
  0.9142067652899644  0.0408526808255447  0.2961040638185961
  0.8030380121480580  0.2522254535014485  0.1210266489084872
  0.5382587894397582  0.2118815744477311  0.4162281161198710
  0.0785177296355971  0.0880110672699127  0.5030153987359768
  0.4219188810351622  0.2030648378623896  0.6270981837772046
  0.4538215280791513  0.4539171362552300  0.5788229829861786
  0.2039280826985782  0.2147110222093636  0.3304925234406307
  0.1230460598623575  0.6281443312111089  0.9131869447451253
  0.7941741642875472  0.2129803756597657  0.8379571664286162
  0.4153302306401757  0.4586365775265915  0.1218481864098936
  0.9564170822158260  0.2561315324632712  0.9596636033252800
  0.7527217846416134  0.0793468880785749  0.2485646302956537
  0.9610312159309271  0.5805203745180100  0.3795575309036108
  0.8726324505788867  0.7485981624385682  0.1259342581553774
  0.3298440505941840  0.6288676278475301  0.4543023402110252
  0.2913028706285586  0.2986633145608758  0.7506655160430519
  0.1289743210295310  0.4596882674634569  0.4187263993295788
  0.0822490811915716  0.7521453643336609  0.0829008795397949
  0.8809184925057045  0.7560500576697433  0.2079131423275963
  0.0015722833837424  0.8285085845057113  0.4984220494069799
  0.4152055243235513  0.1276722485213988  0.7088681155877907
  0.4577525483042990  0.4982155911716796  0.2086572233501216
  0.3677298295846614  0.5837474968671001  0.4603450540643452
  0.1613561174545057  0.0426260046479430  0.8778562596197067
  0.7942185043112359  0.5452839119429299  0.7508899874129757
  0.4622017925563077  0.6672716308648687  0.2920192391362785
  0.4628364091453516  0.3280067108625853  0.1136221420776294
  0.4144198745288180  0.1631809865544420  0.3293299834445437
  0.4555951290266976  0.7086200885802822  0.1626461350186976
  0.8815267822056834  0.9235431115279074  0.7873277875048704
  0.0418905145050074  0.7922620007659739  0.4196048860489103
  0.5044315082425332  0.0777344354046221  0.9944788356753180
  0.7875384026173916  0.0796075242803198  0.4474795190659331
  0.7055398425596608  0.5360445595068060  0.1692957529462560
 -0.0002300443566512  0.7894658080221079  0.2922603380150856
  0.8330201819160321  0.0837592746858925  0.8385737698830366
  0.9170445268060383  0.6257943099556100  0.2127337342779975
  0.6257721399437658  0.7427314230542628  0.2092793693075030
  0.7992497113741582  0.9110766367426931  0.4548150217349253
  0.3331113560897420  0.1281368488321115  0.2061630970176346
  0.4995984456604696  0.0830828121994924  0.5946648420746918
  0.1224517649823554  0.7926305772128859  0.4166022350697440
  0.4560066598715580  0.3767516387795630  0.4960540150168575
  0.2536471055109661  0.5122062542711913  0.3355375867609557
  0.8356570276997670  0.4172798060567364  0.3285083073805632
  0.1708878369218269  0.8717913757545425  0.5410896228271309
  0.3778199562253116  0.6237214138481654  0.1635246217380292
  0.5778613587224308  0.7570948194779074  0.3347491657147418
  0.3345177662161166  0.8708519215026390  0.2921009910549545
  0.4579174377673911  0.3745512651040133  0.7507153985697017
  0.3768846588506290  0.7115756282842794  0.9143924391391605
  0.2500832761069903  0.0840794927944690  0.0038277495387252
  0.5380523312044579  0.2442761186295164  0.8757695072548591
  0.3759091783294785  0.1216180339744346  0.5004658473738790
  0.1627251156858930  0.3802655856568891  0.0372364747685866
  0.5816247182330057  0.6684410989896572  0.2473355802640338
  0.9584969064519723  0.9205113624081954  0.2910118892231018
  0.8401270563378798  0.5035613352776434  0.4107632082002440
  0.7518266704133987  0.5842116814900908  0.4999074402005499
  0.6669612506990482  0.9599864541227632  0.2142870207328408
  0.1242067985449821  0.1261925387933638  0.6672841014965313
  0.0785777272301508  0.4611708870055464  0.1283358246884143
  0.3377767579572329  0.9970103739027922  0.5020704019811123
  0.4165897644380817  0.6283064494227206  0.2887588617694219
  0.3321816012180205  0.4247621850541974  0.0907368702261729
  0.7042969362706382  0.3303553464923438  0.3782869120997828
  0.2952241914735243  0.0412194559589943  0.3308098317351526
  0.0841191216906408  0.6627558765773270  0.5757676782288821
  0.7946632901738627  0.4198695405653020  0.9543206304707968
  0.4238476720656187  0.5450913099650323  0.8728652357032521
  0.3328467015733503  0.9124012949503918  0.3299826131682110
  0.9684609411502577  0.7074187510634677  0.6658222663405458
  0.1765578174510140  0.7901974184129708  0.7871906105565837
  0.8354921382366748  0.2868688682596928  0.3773169740815934
  0.4630123836143659  0.4527005568552724  0.9155244953689615
  0.6185890561062033  0.9966514968360620  0.2089509760070589
  0.3752634767345124  0.5398536446668096  0.4961607081988583
  0.2561440030949337  0.9545298599575777  0.7941339811410794
  0.8754840683523635  0.8685656390311925  0.0017733099661408
  0.0410530423075878  0.4563170400373787  0.5805854989278028
  0.6299941415743701  0.7096731641428879  0.4137284472844229
  0.9209575338965625  0.7921941051047006  0.2109712183363734
  0.5409441321244026  0.7520760830466473  0.6197294260904459
  0.8330118681615905  0.9204836498933898  0.9175544370784580
  0.6270580006307368  0.0407972557959339  0.7517490753719435
  0.7527619677880812  0.4097184463920799  0.5740855285801936
  0.4913484300028987  0.8333901439886844  0.3287577200138119
  0.6743604921520929  0.6627766609634310  0.7493782697303405
  0.2911518374228692  0.5416438731232393  0.2493100969439193
  0.5455471808335813  0.7481824747164871  0.2917919965148741
  0.5438206911612042  0.0800681062763858  0.8758401741676131
  0.0819405023392134  0.0009779510918454  0.4101826310150706
  0.0772314532609039  0.8331102475891498  0.0857957288363681
  0.3340327972070219  0.0430350413664708  0.0404525121117546
  0.4113133016191314  0.9620399514698441  0.2936043949831480
  0.8778909002632134  0.2513206398930518  0.8733169496945803
  0.3342073860502960  0.4178811676280138  0.9195317250098241
  0.5061233572714036  0.8728361375627064  0.4567923096662915
  0.0496953286122293  0.6681556600871614  0.8709073465322499
  0.4604240347315405  0.4098251395740808  0.2934408911457961
  0.9131703172362419  0.0466315715379171  0.8735788329594915
  0.1657471654254231  0.9593268962703944  0.3809597841527647
  0.5025415147328042  0.3228591112374802  0.0801638530150385
  0.4105595212164242  0.3687912189017087  0.6315945393043826
  0.5417935207031884  0.4577580908072600  0.6635720101383463
  0.4553595726508517  0.3704428847841112  0.4090824441772958
  0.4897563460273279  0.9596913158400854  0.2110127871085815
  0.6660481233362098  0.9175211820606916  0.5011849871330794
  0.0412482769743920  0.2061783389007776  0.3363440209417932
  0.0841860474138958  0.7434727328253075  0.8301214528673861
  0.1308745681697380  0.1305271917966522  0.2447056626090002
  0.9152667689812714  0.6703477200082694  0.1687553589075505
  0.0394425295096714  0.4991467316691414  0.0319059725457658
  0.6695731552194581  0.9170556118119605  0.0023472500040183
  0.1694814267954523  0.1291030456608022  0.8835733514240629
  0.5849169649918885  0.7482711547638644  0.8266892579087360
  0.6231006535165241  0.7099918580631501  0.7468051627306581
  0.5436211610546052  0.2467550030788604  0.6266104435166294
  0.3766837431182897  0.4148618891399642  0.2036509575505241
  0.4598559281780297  0.9610076602933426  0.2509451353174386
  0.0848970119812286  0.0031343269932642  0.7498590818622144
  0.7913945990525646  0.8721876647162599  0.4162752273950402
  0.2893837789782839  0.9535917913314145  0.6685699621835023
  0.0422053286731968  0.7493505572155352  0.8731770014948130
  0.9541127866097562  0.0489328187673584  0.8344820170720176
  0.1646109523184013  0.2918141665267184  0.2092987680678668
  0.7891803691196122  0.2500167660714573  0.5339370227558544
  0.8741413970100412  0.0420660732862997  0.5031581181872247
  0.2891163532104117  0.2841156299137753  0.2557394003787747
  0.2125577598089832  0.7965948524557999  0.8258024574349628
  0.3372876320709174  0.2072923819959551  0.7958147451640275
  0.6650504728032151  0.1686680644859135  0.5845206760301712
  0.2091491204879176  0.0884978375924697  0.7071097565233874
  0.6664832098186548  0.2544646246977257  0.6636080364075934
  0.7074173654377275  0.9612875566928770  0.0018990832145852
  0.0391092865191363  0.3768306194467584  0.6653109704423860
  0.2113259385258827  0.9143203866006664  0.5372001713741915
  0.7138023288488942  0.7145935211465886  0.4168211639367068
  0.0447541872224245  0.8758457166705741  0.4150711186267451
  0.2543884152820109  0.2111319509222448  0.9563491865545529
  0.4980354598254443  0.8322968852796109  0.8319504788445433
  0.4154507800795793  0.1676482439410743  0.4234638537355638
  0.4178257425984029  0.6734542929179559  0.0069959412250816
  0.4993199348866752  0.7940328304620397  0.1252246792137849
  0.5072318578636200  0.5458326197360770  0.8780059071996559
  0.5848934093543039  0.4235733181690452  0.7439507737057008
  0.4996233869237944  0.6242202391146627  0.0384914360015497
  0.3273582380161386  0.5427024911888060  0.1293122751475830
  0.3735023464186286  0.4596951955921583  0.1574985353935925
  0.8724426198524696  0.5809942585211826  0.9559210282008093
  0.0026209665127514  0.3775663867148421  0.3772767909351256
  0.2884748084926664  0.9168394541964784  0.3742644405757773
  0.5833387372737203  0.6629346222978220  0.3312407613403767
  0.9981729138988792  0.2466399961424179  0.9133074941845287
  0.9140695883416776  0.2084951051385099  0.2887339205060970
  0.0456505485138055  0.1646469785876483  0.3750791885110564
  0.7924379752349883  0.9931403212102164  0.2886757242250056
  0.4148674316429253  0.3718783930510315  0.7917770317568792
  0.8722126059795847  0.6333431989886040  0.9201289297038806
  0.3719546024667464  0.9541307997443798  0.2523487741923326
  0.4642455905232067  0.1653079220657573  0.6292556030548059
  0.7130624047035896  0.9607748751689771  0.7458573947243131
  0.6686129165814507  0.2036703563108879  0.9569131362308431
  0.8732490540333071  0.4544990990661437  0.0028551788316293
  0.5877671971396251  0.0040802382611173  0.6683150070472925
  0.2937207875453308  0.4184381891756025  0.1315560189088031
  0.5376033884646103  0.3290223745302036  0.2928797127209865
  0.7517185916056575  0.5841673414664021  0.4124204165856075
  0.5004977167659052  0.9158889149386528  0.4187651968503064
  0.5446465241024054  0.7850428906591643  0.4141496775094652
  0.4145819927404296  0.0439362523479428  0.3724243295926981
  0.0442789175935117  0.4197697755120026  0.4597173656040025
  0.0443777127087930  0.3333358274596658  0.8773796043650536
  0.9602206248728687  0.4151750405572654  0.3778365837341948
  0.8736411861178036  0.0026041450162645  0.3649156237061719
  0.6259855263077675  0.2502024399206535  0.7064280286591742
  0.7086671998554515  0.0048948614900798  0.8748993342899694
  0.1234865502851895  0.4581280528799122  0.5870397436259830
  0.9173909332411061  0.4171357009797482  0.9194887706118756
  0.4616724835235243  0.8706745614078844  0.7452283206382303
  0.5412586691674439  0.7027921467167043  0.7569867406701661
  0.2423113013298127  0.6727642512993013  0.9135291943029721
  0.1623814805023059  0.9606238419632874  0.1263355353697598
  0.2178106669903488  0.7478790226793678  0.3810747910892071
  0.7891762122423914  0.6693847101187813  0.5411464334824820
  0.7901918759100096  0.5056619438998935  0.2074489577046056
  0.4962646301293786  0.3737365171687343  0.7023362758481554
  0.2885551747856021  0.5368634643193058  0.0802558585641924
  0.4193360746552979  0.5423145159815301  0.7880386135096292
  0.7019760131556849  0.0789353572337146  0.2907222934433853
  0.3786014491428242  0.2905851164950984  0.6622043975326993
  0.0505355720611294  0.3276076506493873  0.7922994126609613
  0.6249601632599672  0.3257024152565153  0.0370528793580008
  0.1671286342884729  0.5790031143324138  0.2560179111525691
  0.3755710856488525  0.9616921594090361  0.8302655579443743
  0.6594400741808597  0.6274459758380125  0.0390875321950141
  0.0035381260464938  0.1680999579324025  0.9089012043304684
  0.4123913184450619  0.5414817549116275  0.2817822361671596
  0.7080007138743813  0.5015203085622248  0.4510710609847143
  0.8405427440599610  0.3408445333461919  0.9928077710325516
  0.0361838148937031  0.0376093466552934  0.8279931317303305
  0.5481230590847443  0.6688997411096866  0.4582264323074715
  0.2184051004329249  0.5049303335090307  0.1306578563039597
  0.7507569673419098  0.2539768844371505  0.5759353389434547
  0.6733268153498511  0.8741926651624313  0.7915899722819427
  0.7489196276103111  0.4998007470185490  0.6646721969761211
  0.2437371102165511  0.2088331978191359  0.6202504213687876
  0.4626313365357915  0.9139836795457807  0.5411395053537807
 -0.0002222100287157  0.5821955960379972  0.9080462732487214
  0.2961442469650639  0.7046253295710823  0.8387123324570636
  0.6689510092620767  0.2476625879387376  0.9256839032966253
  0.5312017975445603  0.5402319204939036  0.9977683111827201
  0.6631452374103430  0.4539490056472562  0.2056656573768774
  0.9227131217094853  0.6250128170380975  0.7089332399975835
  0.4445960319004301  0.3301821432748100  0.6228096721110673
  0.7073176003844279  0.7973250772209225  0.5025235015981807
  0.7065083949521099  0.6606330979432326  0.9519525960806744
  0.1716194473126897  0.9138215613341691  0.6602506652389178
  0.4586324206493707  0.7535531600857758  0.6225159194541299
  0.8321791070916880  0.6674877884803510  0.7499630037927347
  0.6264815803227842  0.0388281430564354  0.2646836145322211
  0.5795199527335347  0.4184340322983817  0.0777848721815680
  0.8817914367220751  0.8754535845860776  0.0834426592042407
  0.9173258088313133  0.6711001147852363  0.8352163987143609
  0.5481854122430565  0.1192900441682061  0.3357010905983076
  0.0434449094604429  0.7077485299896521  0.1706716793063447
  0.7521744624742066  0.7455539426871939  0.1759398283708533
  0.5050370266910316  0.2081320711945590  0.2071164075269407
  0.1227895805378334  0.9195455812672269  0.0352591868372206
  0.6673741671696487  0.6654356767590103  0.9058874683453799
  0.4979661785384309  0.1638516294127330  0.6701454186501898
  0.4551461862868501  0.4618872555132663  0.0795051265381139
  0.7075476142573129  0.5866947228166557  0.8798640313173587
  0.9615383549518661  0.0448636516559059  0.3248530266777295
  0.3277323569660117  0.2543260621236987  0.9938040359398060
  0.7521744624742066  0.1259892674972662  0.2851645485991601
  0.9137938488193637  0.8382384484538911  0.1637324655990697
  0.3326319295836084  0.7055523131913234  0.7084344147310860
  0.1327378191026798  0.8708879477718861  0.7414109217237849
  0.1287671699813606  0.9153374358940251  0.7037468428517507
  0.6679547443548222  0.0878515817472075  0.8435814213083742
  0.3706341011362685  0.2934755317893029  0.2464557079189620
  0.1282273301929512  0.2898618198586773  1.0000601361571277
  0.1224894540024908  0.0068656646929814  0.6222415655575564
  0.3298232662080799  0.2523446173151118  0.6725633355669620
  0.5883256043129541  0.6605818297908426  0.8309749983233928
  0.9566138410709445  0.7953782730558423  0.1674473282087351
  0.7920555425306736  0.6222706636981020  0.3324684257462565
  0.7951371741770353  0.4157708596255817  0.1240717000353057
  0.8352759806211927  0.7114509219676550  0.6276552053247935
  0.2916922314615746  0.4618346017351359  0.1662044219197124
  0.1260811344838461  0.9563187027882669  0.3412851623315980
  0.3344277005429990  0.5500657063726037  0.2926580126025432
  0.4990358816099197  0.1304584647599348  0.7071222271550498
  0.2930667721959230  0.0835575275781091  0.3775248179426340
  0.6239334145864268  0.5019276825298644  0.0402852670849039
  0.5811785467446385  0.4235483769057203  0.4994875956012479
  0.4583040273489266  0.0843025785386526  0.7070889721372833
  0.6608534124359355  0.3400117722762893  0.7511712694382506
  0.2443467855422702  0.2503617868807846  0.2517668113814189
  0.7516021990434748  0.5065861562686540  0.4947986380961724
  0.6637202720925554  0.6694470632770935  0.9963037047752542
  0.1707312612131763  0.5036832703427871  0.7506724441717533
  0.8763861107092795  0.3616538607135751  0.0740449297460037
  0.8340677149756767  0.9968468700654401  0.0869984519789230
  0.2534129347608604  0.2493197963241012  0.4973856013532574
  0.8735067804209974  0.2060730313445170  0.9145517860992916
  0.7932651938019297  0.4585271130931102  0.9085464841409592
  0.7469866797026337  0.2091324929790344  0.7071291552837512
  0.9159969937463939  0.0435179319369551  0.0451851168276487
  0.0804080002704741  0.4575294625601153  0.4567036296189141
  0.7521245799475569  0.9249245803909570  0.0060057315023121
  0.2830195999532212  0.4105331943273591  0.3739928579306843
  0.4144087895228958  0.4528626750668841  0.3732321493992758
  0.5768900350785012  0.1322693390398944  0.7949750559654236
  0.5117406840224604  0.3324822820036591  0.0005352990928585
  0.9165013615158524  0.2484731789967959  0.1662002650424916
  0.8333541177194373  0.0836491174395410  0.2476154766635684
  0.2449107352185603  0.1316074256237671  0.3761752184716105
  0.4984747031851101  0.5385844114887218  0.9571736338700139
  0.6995026712093020  0.8313255616356813  0.9624514823147043
  0.4209461717654923  0.4562893275225732  0.7112486206095755
  0.0803355320442580  0.5863400026271464  0.1690366409328254
  0.5432511989819531  0.5813198805701462  0.9555482948766765
  0.7873083887445066  0.2885399329024591  0.3252562437681482
  0.1717067417343268  0.0405935688121141  0.9597827671389433
  0.0838623652409686  0.0075975799215071  0.2488126573031622
  0.6684203146035531  0.5007332731417512  0.7490387914239743
  0.7065083949521099  0.2060439332039713  0.3307502498283210
  0.7519929455022311  0.1233851224810017  0.6271854781988417
  0.1689410327567467  0.9172288150294944  0.2502121393008354
  0.2931249684770144  0.1261232575063503  0.5071722759567885
  0.7141930753076504  0.1241193655607710  0.2496038496008566
  0.0409762786415769  0.7920001175010627  0.1646802336054148
  0.8746485360309803  0.7995628627914594  0.3317991685137057
  0.4959029818111680  0.3698151963237686  0.3794397527156879
  0.0797449783537547  0.6658513644810915  0.4143838482595709
  0.5453490363527226  0.8289270434792730  0.4569779835154877
  0.7973347766011044  0.3769719532722660  0.9922646057423655
  0.8375096093145088  0.2451809322379130  0.6611028250691843
  0.4118412250261745  0.1178405410813091  0.6322014433786212
  0.7487824506620242  0.4606817611192309  0.2095287819407518
  0.6659026326334814  0.3356096392994498  0.2551269538015751
  0.0439914002524056  0.7045796039216534  0.8336118441071276
  0.6753318157960225  0.1354751227525843  0.3698013400663659
  0.5888091876963085  0.0402870683983663  0.6296103232443151
  0.0497417470745284  0.5794963970959501  0.2944773391995185
  0.8352150130886207  0.0037288851421569  0.7506502741599089
  0.8725631692918732  0.0429616032022365  0.3343916742737519
  0.3351690103140437  0.0412467527860777  0.4600055757579788
  0.9584567233055045  0.8281968187141504  0.6280210105202249
  0.9635599829069208  0.9586271552715577  0.3281050902901445
  0.2558045247885674  0.4527906225283901  0.3776010273583489
  0.5018334599795260  0.9948252421103855  0.0854365746444900
  0.4601316677003435  0.9187114345715839  0.7104643564405824
  0.5860795049879756  0.8339748780510786  0.6636191214135155
  0.6184934479301245  0.0414428188283260  0.8413159232230319
  0.5041017293163489  0.3273776367765024  0.1632433397127542
  0.0833115790092111  0.4194510815917403  0.2455356524274223
  0.2879094731906360  0.3791667844448546  0.1687595157847713
  0.2473120246264492  0.3362719684032991  0.6623873001304151
  0.9600737485444001  0.0023910496336683  0.2875838511416725
  0.5032564976147839  0.9147942706038391  0.7533910418741641
  0.7158572118217154  0.2828034423377391  0.0803086509048968
  0.2060134494376853  0.4570943760776705  0.5036153746815140
  0.0448097508146094  0.6290740860828304  0.9985733597378174
  0.5422549340746986  0.8252523640160755  0.0424897976376744
  0.8344016507790819  0.0430566571280191  0.0433786765500579
  0.9246169714766170  0.9564032259584234  0.5364574759774065
  0.0382331553635632  0.2160093535279971  0.1602476168622893
  0.9622145403131181  0.7472596479734669  0.9598631334318791
  0.5406185100754389  0.1578657262147642  0.8801951958692833
  0.9642098413791078  0.8345720827451352  0.2109351920671264
  0.7477861857547696  0.5006542924745557  0.3370534613208117
  0.8332155551454103  0.2492172600193212  0.5056619438998935
  0.4166022350697440  0.7088833574709337  0.9608663264678348
  0.9215325685787749  0.7453391706974519  0.4181181096296001
  0.0891156881100564  0.7894644223963676  0.5408069551761158
  0.4147842940985091  0.8327361286392767  0.5027355023364422
  0.2094470300220758  0.4966387490792517  0.4664612060818993
  0.3750154497270040  0.9592686999893030  0.6769058866369698
  0.2914206488164816  0.7113497712886153  0.1660215193219967
  0.8737187811592588  0.0505642545139530  0.8393899034440560
  0.8723539398050923  0.0880250620898894  0.3782023889296263
  0.4984275919099410  0.7920749412910373  0.6272547594858553
  0.5765533280236155  0.8728610788260314  0.1358668391493588
  0.5807309896305312  0.0431726340024797  0.2906045152554623
  0.6770901748604259  0.7951925992066461  0.3797972441566777
  0.0397623319305258  0.2081348424460396  0.0781728473888437
 -0.0020445877735710  0.6713065730205365  0.9978417493469546
  0.6748690167987722  0.2497715103154294  0.4999490089727580
  0.9590303723619764  0.5429823875883405  0.3306615697809437
  0.3334522200218485 -0.0009599725978654  0.8315347911224621
  0.8734541266428671  0.1701326708933794  0.7881203654283052
  0.9116863120684122  0.9648500004711128  0.9610270590537062
  0.5831877040680309  0.8738019187036751  0.9615217274429829
  0.1712674983746610  0.7085715916793729  0.7069989064641657
  0.2116058349254173  0.4204986146513849  0.2143812432831792
  0.1677978915210235  0.2893477527090369  0.5449444336365636
  0.8326072654454315  0.3311839506850256  0.0794769983355864
  0.6220018523044896  0.9961332728092009  0.6251347521032412
  0.7019787844071655  0.3685847606664084  0.0801896256538075
  0.1641703233329952  0.1242270286807901  0.9656536634004695
  0.7903858635136476  0.5357258655865437  0.8335675040834390
  0.7529989097896675  0.2525510755504121  0.1634927523460029
  0.9174449726449767  0.0416453973115535  0.6288814841049328
  0.2869215220378232  0.1225671876065200  0.0038777290591767
  0.0896697998435906  0.3763442648119235  0.4580850984819639
  0.0374271368704479  0.3798263422972233  0.9232729145085545
  0.9607097507591843  0.6689981205372459  0.3695283717955326
  0.8748536086405404  0.7115035757457853  0.9957328269702627
  0.7097729291961874  0.0856456655686968  0.2074586570847876
  0.8686376915696867  0.1188800375116600  0.2465305317089366
  0.1723746133411372  0.4982530030666669  0.1713035246439080
  0.5828551538903659  0.2113051541397786  0.4575211488056737
  0.0000612076615127  0.2496357189928829  0.0822152719235090
  0.9206416112277808  0.1679309115920895  0.4970031686489428
  0.1637671062425765  0.9982629795719968  0.2494736007812712
  0.7885803931740750  0.0810790588164872  0.6215154976696546
  0.4615075940604321  0.0802920233960135  0.4598088169028604
  0.7060289684459764  0.9630001901078517  0.2533769084916134
  0.4523319804083605  0.6676582204464043  0.7022503670522586
  0.5000487740260574  0.2429750160594023  0.1595839021326997
  0.3736450658698764  0.0041117889592233  0.3737725434379813
  0.2463102172162335  0.2500375504575613  0.0868654319078570
  0.4526506743286228  0.1671009217736674  0.4611140763501952
  0.6313520547998352  0.7476240675431580  0.4559304504558431
  0.5550955278097857  0.3356179530538914  0.9610921834634989
  0.8386998618254011  0.2836043340156155  0.7024152565153507
  0.6275595971487148  0.5026121816455580  0.6210513130466639
  0.3756084975438398  0.5017683355697333  0.8744282215382774
  0.5029253330628592  0.3685376493912392  0.4631260049250681
  0.1287574706011787  0.3675884957591539  0.4131741969883147
  0.7110657180118598  0.0782271639178623  0.7106708146758828
  0.6644186274656517  0.2052277996429519  0.4510655184817532
  0.5837433399898794  0.5027978554947543  0.2516615038251584
  0.6235579100108134  0.5347254438020683  0.3244040839378818
  0.3712922733628970  0.0441016960613311  0.1652303270243022
  0.4148092353618340  0.6261545726480805  0.4597339931128858
  0.9545631149753442  0.3335145731801607  0.3742769112074398
  0.5427690012243389  0.2860873753421803  0.0024309556549881
  0.7094195946324184  0.0454021058185750  0.5808834084619610
  0.6294717606702881  0.7007857606447926  0.8260144581732243
  0.9960362790073820  0.0424830080715471  0.1254523375229113
  0.2955636697798906  0.9113440625105653  0.8719618077205957
  0.1663346707392978  0.0458080941604743  0.7118763090699181
  0.9584248539134782  0.2961830444857915  0.4959140668170902
  0.8414170739020717  0.2519330864702514  0.9117708352385686
  0.8343171276089254  0.1220957977296799  0.8700676573336459
  0.5354085572920217  0.8382010365589038  0.2100761041081586
  0.9164500933634623  0.9487005324682594  0.7062756098277445
  0.1631893003088837  0.3747092264384042  0.5342626448048179
  0.7070016777156463  0.1288049975640699  0.9222489370864947
  0.4597395356158469  0.8744226790353162  0.4969283448589683
  0.1252002922007561  0.9533396074466852  0.4192072114614527
  0.7877656452387959  0.4159482197203364  0.2925014368938926
  0.3329090547316625  0.8672118826829484  0.2141761706736192
  0.7103327219952568  0.7890043946505979  0.2518804326921212
  0.9513124369886694  0.2109421201958277  0.1672048437041877
  0.2440959872832812  0.7899729470430469  0.8736134736029982
  0.1179838147828530  0.1311268906170413  0.9139628951596768
  0.6253509097187235  0.5449014792386152  0.0813736428488687
  0.0838026447715630  0.5401875804702149  0.4590190102309062
  0.8792765260034839  0.7050063766496567  0.8312978491208758
  0.7550454790080472  0.8800122932715677  0.9586770377982073
  0.9967692750239853  0.9185451594827514  0.9989738055767556
  0.0362985447049975  0.1245131603961559  0.1681359842016495
  0.7440422250045587  0.2476612023129973  0.0831328332887162
  0.8758789716883405  0.9970810408155460  0.4573133049446332
  0.7461192779892242  0.1657028254017345  0.9198545758073070
  0.7944138775406141  0.0408662599577994  0.8395852766734341
  0.3768112206863946  0.3739221910179306  0.0836513344407254
  0.2533325684679247  0.2089994729079684  0.4588167088728267
  0.5034546420956425  0.6635221276116966  0.1666353515249366
  0.7044978520029774  0.9940964029710032  0.7055453850626220
  0.5031553469357440  0.7899369207737998  0.7941852492934695
  0.3741466623878543  0.8228510746081865  0.2139419999235134
  0.2515243268768717  0.5805148320150489  0.9974648591456009
  0.5397926771342377  0.4550353362276284  0.4965888665526019
  0.0032729865610931  0.2036925263227322  0.2857104851408266
  0.8859067451706786  0.3257467552802040  0.7024471259073770
  0.3716511504296271  0.5813281943245878  0.8807910149375997
  0.9608912677311597  0.4188247787571381  0.6223080755930894
  0.2086031839462510  0.8360269897724193  0.6259855263077675
  0.1243635128162067  0.7081933158522790  0.2504698656885258
  0.6595592379945229  0.9576807728909528  0.3781358788940933
  0.8746429935280192  0.4632479399902119  0.3250608705387700
  0.6659899270551185  0.0846588229164761  0.5005531417955159